# 
# This is the geometry file that corresponds to the current relaxation step.
# If you do not want this file to be written, set the "write_restart_geometry" flag to .false.
#  aims_uuid : 13CFEFD7-F6A5-494B-A3F3-ED49FD370CC4                                
# 
lattice_vector      0.00000000      2.28199105      2.28199105
lattice_vector      2.28199105      0.00000000      2.28199105
lattice_vector      2.28199105      2.28199105      0.00000000
atom_frac       0.25000000      0.25000000      0.25000000 Ga
atom_frac       0.00000000      0.00000000      0.00000000 N
symmetry_n_params 1 1 0
symmetry_params a
symmetry_lv 0 , (1.0/2.0)*a , (1.0/2.0)*a
symmetry_lv (1.0/2.0)*a , 0 , (1.0/2.0)*a
symmetry_lv (1.0/2.0)*a , (1.0/2.0)*a , 0
symmetry_frac (1.0/4.0) , (1.0/4.0) , (1.0/4.0)
symmetry_frac (0.0) , (0.0) , (0.0)

