#=======================================================
# FHI-aims file: geometry.in.primitive
# Created using the Atomic Simulation Environment (ASE)
# Sat Nov 24 15:23:04 2018
#=======================================================
lattice_vector 0.0000000000000000 2.7200000000000002 2.7200000000000002 
lattice_vector 2.7200000000000002 0.0000000000000000 2.7200000000000002 
lattice_vector 2.7200000000000002 2.7200000000000002 0.0000000000000000 
atom_frac 0.0000000000000000 0.0000000000000000 0.0000000000000000 Si
atom_frac 0.2500000000000000 0.2500000000000000 0.2500000000000000 Si
