#=======================================================
# FHI-aims file: ./geometry.in
# Created using the Atomic Simulation Environment (ASE)
# Fri Apr 12 19:10:37 2019
#=======================================================
lattice_vector 6.1660000000000004 0.0000000000000000 0.0000000000000000 
lattice_vector 0.0000000000000000 6.1660000000000004 0.0000000000000000 
lattice_vector 0.0000000000000000 0.0000000000000000 6.1660000000000004 
atom 3.0830000000000002 3.0830000000000002 3.0830000000000002 Cs
atom 0.0000000000000000 0.0000000000000000 0.0000000000000000 Pb
atom 3.0830000000000002 0.0000000000000000 0.0000000000000000 I
atom 0.0000000000000000 3.0830000000000002 0.0000000000000000 I
atom 0.0000000000000000 0.0000000000000000 3.0830000000000002 I
