#=======================================================
# FHI-aims file: geometry.in.supercell
# Created using the Atomic Simulation Environment (ASE)
# Tue Nov 27 18:02:45 2018

# Additional information:
#  Number of atoms:     112
#  Spacegroup:          P6_3mc (186)
#  supercell_matrix:    [4, 1, 0, 2, 4, 0, 0, 0, 2]
#=======================================================
lattice_vector 11.1749612671121881 2.7650858125854723 0.0000000000000000 
lattice_vector -0.0000000019737607 11.0603432503418890 0.0000000000000000 
lattice_vector 0.0000000000000000 0.0000000000000000 10.4090243170560086 
atom 0.0000000000000000 0.0000000000000000 0.0000000000000000 Ga
atom 0.0000000000000000 1.8433905417236303 2.6022560792640039 Ga
atom 0.0000000000000000 0.0000000000000000 1.9593682934637005 N
atom 0.0000000000000000 1.8433905417236303 4.5616243727277048 N
atom 0.0000000000000000 0.0000000000000000 5.2045121585280034 Ga
atom 0.0000000000000000 1.8433905417236303 7.8067682377920091 Ga
atom 0.0000000000000000 0.0000000000000000 7.1638804519917052 N
atom 0.0000000000000000 1.8433905417236303 9.7661365312557091 N
atom 3.1928460764587507 1.8433905417236298 2.6022560792640039 Ga
atom 3.1928460764587507 1.8433905417236298 4.5616243727277048 N
atom 3.1928460764587507 1.8433905417236298 7.8067682377920091 Ga
atom 3.1928460764587507 1.8433905417236298 9.7661365312557091 N
atom 1.5964230377359352 2.7650858125854723 0.0000000000000000 Ga
atom 1.5964230377359350 4.6084763543091025 2.6022560792640039 Ga
atom 1.5964230377359352 2.7650858125854723 1.9593682934637005 N
atom 1.5964230377359350 4.6084763543091025 4.5616243727277048 N
atom 1.5964230377359352 2.7650858125854723 5.2045121585280034 Ga
atom 1.5964230377359350 4.6084763543091025 7.8067682377920091 Ga
atom 1.5964230377359352 2.7650858125854723 7.1638804519917052 N
atom 1.5964230377359350 4.6084763543091025 9.7661365312557091 N
atom 0.0000000000000000 5.5301716251709436 0.0000000000000000 Ga
atom 0.0000000000000000 7.3735621668945743 2.6022560792640039 Ga
atom 0.0000000000000000 5.5301716251709436 1.9593682934637005 N
atom 0.0000000000000000 7.3735621668945743 4.5616243727277048 N
atom 0.0000000000000000 5.5301716251709436 5.2045121585280034 Ga
atom 0.0000000000000000 7.3735621668945743 7.8067682377920091 Ga
atom 0.0000000000000000 5.5301716251709436 7.1638804519917052 N
atom 0.0000000000000000 7.3735621668945743 9.7661365312557091 N
atom 6.3856921529175015 1.8433905417236303 2.6022560792640039 Ga
atom 6.3856921529175015 1.8433905417236303 4.5616243727277048 N
atom 6.3856921529175015 1.8433905417236303 7.8067682377920091 Ga
atom 6.3856921529175015 1.8433905417236303 9.7661365312557091 N
atom 4.7892691141946857 2.7650858125854723 0.0000000000000000 Ga
atom 4.7892691141946857 4.6084763543091025 2.6022560792640039 Ga
atom 4.7892691141946857 2.7650858125854723 1.9593682934637005 N
atom 4.7892691141946857 4.6084763543091025 4.5616243727277048 N
atom 4.7892691141946857 2.7650858125854723 5.2045121585280034 Ga
atom 4.7892691141946857 4.6084763543091025 7.8067682377920091 Ga
atom 4.7892691141946857 2.7650858125854723 7.1638804519917052 N
atom 4.7892691141946857 4.6084763543091025 9.7661365312557091 N
atom 3.1928460754718704 5.5301716251709445 0.0000000000000000 Ga
atom 3.1928460754718704 7.3735621668945743 2.6022560792640039 Ga
atom 3.1928460754718704 5.5301716251709445 1.9593682934637005 N
atom 3.1928460754718704 7.3735621668945743 4.5616243727277048 N
atom 3.1928460754718704 5.5301716251709445 5.2045121585280034 Ga
atom 3.1928460754718704 7.3735621668945743 7.8067682377920091 Ga
atom 3.1928460754718704 5.5301716251709445 7.1638804519917052 N
atom 3.1928460754718704 7.3735621668945743 9.7661365312557091 N
atom 1.5964230367490548 8.2952574377564172 0.0000000000000000 Ga
atom 1.5964230367490546 10.1386479794800444 2.6022560792640039 Ga
atom 1.5964230367490548 8.2952574377564172 1.9593682934637005 N
atom 1.5964230367490546 10.1386479794800444 4.5616243727277048 N
atom 1.5964230367490548 8.2952574377564172 5.2045121585280034 Ga
atom 1.5964230367490546 10.1386479794800444 7.8067682377920091 Ga
atom 1.5964230367490548 8.2952574377564172 7.1638804519917052 N
atom 1.5964230367490546 10.1386479794800444 9.7661365312557091 N
atom 7.9821151906534373 2.7650858125854723 0.0000000000000000 Ga
atom 7.9821151906534373 4.6084763543091025 2.6022560792640039 Ga
atom 7.9821151906534373 2.7650858125854723 1.9593682934637005 N
atom 7.9821151906534373 4.6084763543091025 4.5616243727277048 N
atom 7.9821151906534373 2.7650858125854723 5.2045121585280034 Ga
atom 7.9821151906534373 4.6084763543091025 7.8067682377920091 Ga
atom 7.9821151906534373 2.7650858125854723 7.1638804519917052 N
atom 7.9821151906534373 4.6084763543091025 9.7661365312557091 N
atom 6.3856921519306216 5.5301716251709445 0.0000000000000000 Ga
atom 6.3856921519306216 7.3735621668945743 2.6022560792640039 Ga
atom 6.3856921519306216 5.5301716251709445 1.9593682934637005 N
atom 6.3856921519306216 7.3735621668945743 4.5616243727277048 N
atom 6.3856921519306216 5.5301716251709445 5.2045121585280034 Ga
atom 6.3856921519306216 7.3735621668945743 7.8067682377920091 Ga
atom 6.3856921519306216 5.5301716251709445 7.1638804519917052 N
atom 6.3856921519306216 7.3735621668945743 9.7661365312557091 N
atom 4.7892691132078067 8.2952574377564172 0.0000000000000000 Ga
atom 4.7892691132078067 10.1386479794800479 2.6022560792640039 Ga
atom 4.7892691132078067 8.2952574377564172 1.9593682934637005 N
atom 4.7892691132078067 10.1386479794800479 4.5616243727277048 N
atom 4.7892691132078067 8.2952574377564172 5.2045121585280034 Ga
atom 4.7892691132078067 10.1386479794800479 7.8067682377920091 Ga
atom 4.7892691132078067 8.2952574377564172 7.1638804519917052 N
atom 4.7892691132078067 10.1386479794800479 9.7661365312557091 N
atom 3.1928460744849914 11.0603432503418890 0.0000000000000000 Ga
atom 3.1928460744849914 11.0603432503418890 1.9593682934637005 N
atom 3.1928460744849914 11.0603432503418890 5.2045121585280034 Ga
atom 3.1928460744849914 11.0603432503418890 7.1638804519917052 N
atom 9.5785382283893714 5.5301716251709445 0.0000000000000000 Ga
atom 9.5785382283893714 7.3735621668945743 2.6022560792640039 Ga
atom 9.5785382283893714 5.5301716251709445 1.9593682934637005 N
atom 9.5785382283893714 7.3735621668945743 4.5616243727277048 N
atom 9.5785382283893714 5.5301716251709445 5.2045121585280034 Ga
atom 9.5785382283893714 7.3735621668945743 7.8067682377920091 Ga
atom 9.5785382283893714 5.5301716251709445 7.1638804519917052 N
atom 9.5785382283893714 7.3735621668945743 9.7661365312557091 N
atom 7.9821151896665574 8.2952574377564172 0.0000000000000000 Ga
atom 7.9821151896665574 10.1386479794800479 2.6022560792640039 Ga
atom 7.9821151896665574 8.2952574377564172 1.9593682934637005 N
atom 7.9821151896665574 10.1386479794800479 4.5616243727277048 N
atom 7.9821151896665574 8.2952574377564172 5.2045121585280034 Ga
atom 7.9821151896665574 10.1386479794800479 7.8067682377920091 Ga
atom 7.9821151896665574 8.2952574377564172 7.1638804519917052 N
atom 7.9821151896665574 10.1386479794800479 9.7661365312557091 N
atom 6.3856921509437408 11.0603432503418890 0.0000000000000000 Ga
atom 6.3856921509437408 11.0603432503418890 1.9593682934637005 N
atom 6.3856921509437408 11.0603432503418890 5.2045121585280034 Ga
atom 6.3856921509437408 11.0603432503418890 7.1638804519917052 N
atom 9.5785382274024897 11.0603432503418890 0.0000000000000000 Ga
atom 9.5785382274024897 12.9037337920655197 2.6022560792640039 Ga
atom 9.5785382274024897 11.0603432503418890 1.9593682934637005 N
atom 9.5785382274024897 12.9037337920655197 4.5616243727277048 N
atom 9.5785382274024897 11.0603432503418890 5.2045121585280034 Ga
atom 9.5785382274024897 12.9037337920655197 7.8067682377920091 Ga
atom 9.5785382274024897 11.0603432503418890 7.1638804519917052 N
atom 9.5785382274024897 12.9037337920655197 9.7661365312557091 N
