#=======================================================
# FHI-aims file: geometry.in.supercell
# Created using the Atomic Simulation Environment (ASE)
# Tue Nov 27 18:43:00 2018

# Additional information:
#  Number of atoms:     36
#  Spacegroup:          P6_3mc (186)
#  supercell_matrix:    [3, 0, 0, 2, 3, 0, 0, 0, 1]
#=======================================================
lattice_vector 9.5785382293762531 0.0000000000000000 0.0000000000000000 
lattice_vector 1.5964230367490551 8.2952574377564172 0.0000000000000000 
lattice_vector 0.0000000000000000 0.0000000000000000 5.2045121585280043 
atom 0.0000000000000000 0.0000000000000000 0.0000000000000000 Ga
atom 0.0000000000000000 0.0000000000000000 1.9593682934637005 N
atom 3.1928460764587507 0.0000000000000000 0.0000000000000000 Ga
atom 3.1928460764587507 1.8433905417236303 2.6022560792640039 Ga
atom 3.1928460764587507 0.0000000000000000 1.9593682934637005 N
atom 3.1928460764587507 1.8433905417236303 4.5616243727277048 N
atom 1.5964230377359352 2.7650858125854723 0.0000000000000000 Ga
atom 1.5964230377359354 4.6084763543091025 2.6022560792640039 Ga
atom 1.5964230377359352 2.7650858125854723 1.9593682934637005 N
atom 1.5964230377359354 4.6084763543091025 4.5616243727277048 N
atom 6.3856921529175015 0.0000000000000000 0.0000000000000000 Ga
atom 6.3856921529175015 1.8433905417236303 2.6022560792640039 Ga
atom 6.3856921529175015 0.0000000000000000 1.9593682934637005 N
atom 6.3856921529175015 1.8433905417236303 4.5616243727277048 N
atom 4.7892691141946857 2.7650858125854723 0.0000000000000000 Ga
atom 4.7892691141946848 4.6084763543091025 2.6022560792640039 Ga
atom 4.7892691141946857 2.7650858125854723 1.9593682934637005 N
atom 4.7892691141946848 4.6084763543091025 4.5616243727277048 N
atom 3.1928460754718704 5.5301716251709445 0.0000000000000000 Ga
atom 3.1928460754718704 7.3735621668945743 2.6022560792640039 Ga
atom 3.1928460754718704 5.5301716251709445 1.9593682934637005 N
atom 3.1928460754718704 7.3735621668945743 4.5616243727277048 N
atom 9.5785382293762531 1.8433905417236303 2.6022560792640039 Ga
atom 9.5785382293762531 1.8433905417236303 4.5616243727277048 N
atom 7.9821151906534373 2.7650858125854723 0.0000000000000000 Ga
atom 7.9821151906534373 4.6084763543091025 2.6022560792640039 Ga
atom 7.9821151906534373 2.7650858125854723 1.9593682934637005 N
atom 7.9821151906534373 4.6084763543091025 4.5616243727277048 N
atom 6.3856921519306216 5.5301716251709445 0.0000000000000000 Ga
atom 6.3856921519306216 7.3735621668945743 2.6022560792640039 Ga
atom 6.3856921519306216 5.5301716251709445 1.9593682934637005 N
atom 6.3856921519306216 7.3735621668945743 4.5616243727277048 N
atom 9.5785382283893714 5.5301716251709445 0.0000000000000000 Ga
atom 9.5785382283893714 7.3735621668945743 2.6022560792640039 Ga
atom 9.5785382283893714 5.5301716251709445 1.9593682934637005 N
atom 9.5785382283893714 7.3735621668945743 4.5616243727277048 N
