#=======================================================
# FHI-aims file: geometry.in.supercell
# Created using the Atomic Simulation Environment (ASE)
# Tue Nov 27 18:03:11 2018

# Additional information:
#  Number of atoms:     104
#  Spacegroup:          Fd-3m (227)
#  supercell_matrix:    [-3, 2, 3, 2, -2, 2, 2, 3, -2]
#=======================================================
lattice_vector 13.6000000000000014 0.0000000000000000 -2.7199999999999998 
lattice_vector 0.0000000000000000 10.8800000000000008 0.0000000000000000 
lattice_vector 2.7199999999999998 0.0000000000000000 13.6000000000000014 
atom 0.0000000000000000 0.0000000000000000 0.0000000000000000 Si
atom 2.7199999999999989 2.7200000000000024 0.0000000000000000 Si
atom 1.3599999999999994 9.5200000000000014 1.3600000000000012 Si
atom 2.7199999999999989 0.0000000000000000 2.7200000000000006 Si
atom 4.0800000000000018 1.3600000000000032 1.3600000000000012 Si
atom 4.0800000000000018 9.5200000000000014 4.0799999999999983 Si
atom 13.6000000000000032 2.7200000000000024 10.8800000000000008 Si
atom 0.0000000000000000 5.4400000000000013 0.0000000000000000 Si
atom 2.7199999999999989 8.1600000000000001 0.0000000000000000 Si
atom 9.5199999999999996 9.5200000000000014 -1.3599999999999990 Si
atom 10.8800000000000008 0.0000000000000000 0.0000000000000000 Si
atom 12.2400000000000020 1.3600000000000032 -1.3599999999999990 Si
atom 13.6000000000000014 2.7200000000000024 0.0000000000000000 Si
atom 1.3599999999999994 4.0800000000000018 1.3600000000000012 Si
atom 2.7199999999999989 5.4400000000000013 2.7200000000000006 Si
atom 4.0800000000000018 6.8000000000000007 1.3600000000000012 Si
atom 12.2400000000000020 9.5200000000000014 1.3600000000000008 Si
atom 13.6000000000000014 0.0000000000000000 2.7199999999999989 Si
atom 1.3599999999999994 1.3600000000000032 4.0800000000000001 Si
atom 2.7199999999999989 2.7200000000000024 5.4399999999999995 Si
atom 4.0800000000000018 4.0800000000000018 4.0799999999999983 Si
atom 1.3600000000000030 9.5200000000000014 6.8000000000000016 Si
atom 2.7200000000000024 0.0000000000000000 8.1600000000000001 Si
atom 4.0800000000000018 1.3600000000000032 6.7999999999999998 Si
atom 5.4400000000000004 2.7200000000000024 8.1600000000000001 Si
atom 4.0800000000000018 9.5200000000000014 9.5200000000000014 Si
atom 5.4400000000000013 0.0000000000000000 10.8799999999999972 Si
atom 13.6000000000000032 8.1600000000000001 10.8800000000000008 Si
atom 6.8000000000000007 9.5200000000000014 12.2400000000000038 Si
atom 5.4400000000000013 0.0000000000000000 0.0000000000000000 Si
atom 6.8000000000000025 1.3599999999999994 -1.3599999999999988 Si
atom 8.1600000000000019 2.7199999999999989 0.0000000000000000 Si
atom 9.5200000000000049 4.0800000000000018 -1.3599999999999988 Si
atom 10.8800000000000043 5.4400000000000013 0.0000000000000000 Si
atom 12.2400000000000020 6.8000000000000007 -1.3599999999999990 Si
atom 13.6000000000000014 8.1600000000000001 0.0000000000000000 Si
atom 6.7999999999999998 9.5200000000000014 1.3600000000000003 Si
atom 8.1600000000000001 0.0000000000000000 2.7199999999999984 Si
atom 9.5199999999999996 1.3599999999999994 1.3599999999999994 Si
atom 10.8799999999999990 2.7199999999999989 2.7199999999999993 Si
atom 12.2400000000000020 4.0800000000000018 1.3600000000000008 Si
atom 13.6000000000000014 5.4400000000000013 2.7199999999999989 Si
atom 1.3599999999999994 6.8000000000000007 4.0800000000000001 Si
atom 2.7199999999999989 8.1600000000000001 5.4399999999999995 Si
atom 9.5200000000000014 9.5200000000000014 4.0799999999999992 Si
atom 10.8800000000000026 0.0000000000000000 5.4399999999999986 Si
atom 12.2400000000000038 1.3599999999999994 4.0799999999999983 Si
atom 13.6000000000000014 2.7199999999999989 5.4399999999999986 Si
atom 1.3599999999999992 4.0800000000000018 6.7999999999999972 Si
atom 2.7199999999999989 5.4400000000000013 8.1599999999999984 Si
atom 4.0800000000000018 6.8000000000000007 6.7999999999999989 Si
atom 5.4400000000000013 8.1600000000000001 8.1599999999999984 Si
atom 12.2400000000000038 9.5200000000000014 6.8000000000000007 Si
atom 13.6000000000000014 0.0000000000000000 8.1599999999999984 Si
atom 14.9600000000000044 1.3599999999999994 6.8000000000000007 Si
atom 2.7200000000000024 2.7199999999999989 10.8800000000000008 Si
atom 4.0800000000000018 4.0800000000000018 9.5200000000000014 Si
atom 5.4400000000000013 5.4400000000000013 10.8799999999999972 Si
atom 14.9600000000000009 9.5200000000000014 9.5200000000000014 Si
atom 4.0800000000000018 1.3599999999999994 12.2400000000000002 Si
atom 6.8000000000000007 4.0800000000000018 12.2400000000000038 Si
atom 5.4400000000000013 5.4400000000000013 0.0000000000000000 Si
atom 6.8000000000000025 6.8000000000000007 -1.3599999999999988 Si
atom 8.1600000000000019 8.1600000000000001 0.0000000000000000 Si
atom 5.4399999999999986 2.7200000000000024 2.7199999999999998 Si
atom 6.7999999999999998 4.0800000000000018 1.3600000000000003 Si
atom 8.1600000000000001 5.4400000000000013 2.7199999999999984 Si
atom 9.5200000000000031 6.8000000000000007 1.3599999999999997 Si
atom 10.8800000000000043 8.1600000000000001 2.7199999999999993 Si
atom 5.4400000000000004 0.0000000000000000 5.4400000000000022 Si
atom 6.7999999999999998 1.3600000000000032 4.0800000000000036 Si
atom 8.1599999999999984 2.7200000000000024 5.4400000000000031 Si
atom 9.5200000000000014 4.0800000000000018 4.0800000000000027 Si
atom 10.8799999999999990 5.4400000000000013 5.4400000000000013 Si
atom 12.2400000000000038 6.8000000000000007 4.0800000000000018 Si
atom 13.6000000000000014 8.1600000000000001 5.4400000000000004 Si
atom 6.8000000000000007 9.5200000000000014 6.8000000000000016 Si
atom 8.1600000000000001 0.0000000000000000 8.1600000000000001 Si
atom 9.5200000000000049 1.3600000000000032 6.7999999999999989 Si
atom 10.8800000000000043 2.7200000000000024 8.1600000000000001 Si
atom 12.2400000000000038 4.0800000000000018 6.8000000000000007 Si
atom 13.6000000000000014 5.4400000000000013 8.1599999999999984 Si
atom 14.9600000000000009 6.8000000000000007 6.7999999999999989 Si
atom 2.7199999999999989 8.1600000000000001 10.8800000000000008 Si
atom 9.5200000000000031 9.5200000000000014 9.5200000000000014 Si
atom 10.8800000000000008 0.0000000000000000 10.8799999999999990 Si
atom 12.2400000000000038 1.3600000000000032 9.5199999999999996 Si
atom 14.9600000000000044 4.0800000000000018 9.5200000000000014 Si
atom 4.0800000000000018 6.8000000000000007 12.2400000000000002 Si
atom 5.4399999999999986 8.1600000000000037 2.7199999999999998 Si
atom 5.4400000000000004 5.4400000000000013 5.4400000000000022 Si
atom 6.7999999999999998 6.8000000000000043 4.0800000000000036 Si
atom 8.1599999999999984 8.1600000000000037 5.4400000000000031 Si
atom 6.8000000000000007 4.0800000000000018 6.8000000000000016 Si
atom 8.1600000000000001 5.4400000000000013 8.1600000000000001 Si
atom 9.5199999999999996 6.8000000000000043 6.7999999999999989 Si
atom 10.8800000000000008 8.1600000000000037 8.1600000000000001 Si
atom 6.7999999999999998 1.3600000000000032 9.5200000000000014 Si
atom 8.1600000000000001 2.7200000000000024 10.8800000000000043 Si
atom 9.5200000000000031 4.0800000000000018 9.5200000000000031 Si
atom 10.8800000000000026 5.4400000000000013 10.8800000000000026 Si
atom 12.2400000000000038 6.8000000000000043 9.5200000000000014 Si
atom 6.7999999999999989 6.8000000000000007 9.5199999999999978 Si
atom 8.1600000000000001 8.1600000000000001 10.8800000000000026 Si
