#=====================================================
# libflo:  geometry.in 
#   Date:    2018-11-17 01:21:57
#=====================================================
#   Material:          Si8
#   No. atoms:         8
#   Spacegroup:        227
#   Wyckoff positions: 8*b
#   Unit cell volume:  160.989184 AA^3
#   Tag  1:            supercell
#   Tag  2:            ('smatrix', [-1, 1, 1, 1, -1, 1, 1, 1, -1])
  lattice_vector  5.44000000000000e+00  0.00000000000000e+00  0.00000000000000e+00
  lattice_vector  0.00000000000000e+00  5.44000000000000e+00  0.00000000000000e+00
  lattice_vector  0.00000000000000e+00  0.00000000000000e+00  5.44000000000000e+00
  atom_frac   0.00000000000000e+00  0.00000000000000e+00  0.00000000000000e+00  Si 
  atom_frac   0.00000000000000e+00  5.00000000000000e-01  5.00000000000000e-01  Si 
  atom_frac   5.00000000000000e-01  0.00000000000000e+00  5.00000000000000e-01  Si 
  atom_frac   5.00000000000000e-01  5.00000000000000e-01  0.00000000000000e+00  Si 
  atom_frac   2.50000000000000e-01  2.50000000000000e-01  2.50000000000000e-01  Si 
  atom_frac   2.50000000000000e-01  7.50000000000000e-01  7.50000000000000e-01  Si 
  atom_frac   7.50000000000000e-01  2.50000000000000e-01  7.50000000000000e-01  Si 
  atom_frac   7.50000000000000e-01  7.50000000000000e-01  2.50000000000000e-01  Si 
