#=======================================================
# FHI-aims file: geometry.in.supercell
# Created using the Atomic Simulation Environment (ASE)
# Tue Nov 20 18:06:01 2018
#=======================================================
lattice_vector 5.4399999999999995 0.0000000000000001 0.0000000000000000 
lattice_vector 0.0000000000000001 5.4399999999999995 0.0000000000000000 
lattice_vector -0.0000000000000001 -0.0000000000000001 5.4399999999999995 
atom_frac 0.0000000000000000 0.0000000000000000 0.0000000000000000 Si
atom_frac 0.0000000000000000 0.5000000000000000 0.5000000000000000 Si
atom_frac 0.5000000000000000 0.0000000000000000 0.5000000000000000 Si
atom_frac 0.5000000000000000 0.5000000000000000 0.0000000000000000 Si
atom_frac 0.2500000000000000 0.2500000000000000 0.2500000000000000 Si
atom_frac 0.2500000000000000 0.7500000000000001 0.7500000000000001 Si
atom_frac 0.7500000000000001 0.2500000000000000 0.7500000000000001 Si
atom_frac 0.7500000000000001 0.7500000000000001 0.2500000000000000 Si
