#=======================================================
# FHI-aims file: geometry.in.supercell
# Created using the Atomic Simulation Environment (ASE)
# Mon Feb 11 16:57:45 2019
#=======================================================
lattice_vector 10.8521350516399995 -0.0000000000000000 0.0000000000000000 
lattice_vector -0.0000000000000000 10.8521350516399995 0.0000000000000000 
lattice_vector 0.0000000000000000 0.0000000000000000 10.8521350516399995 
atom_frac 0.0000000000000000 0.0000000000000000 0.0000000000000000 Si
atom_frac 0.0000000000000000 0.2500000000000000 0.2500000000000000 Si
atom_frac 0.0000000000000000 0.5000000000000000 0.5000000000000000 Si
atom_frac 0.0000000000000000 0.7500000000000000 0.7500000000000000 Si
atom_frac 0.2500000000000000 0.0000000000000000 0.2500000000000000 Si
atom_frac 0.2500000000000000 0.2500000000000000 0.5000000000000000 Si
atom_frac 0.2500000000000000 0.5000000000000000 0.7500000000000000 Si
atom_frac 0.2500000000000000 0.7500000000000000 0.0000000000000000 Si
atom_frac 0.5000000000000000 0.0000000000000000 0.5000000000000000 Si
atom_frac 0.5000000000000000 0.2500000000000000 0.7500000000000000 Si
atom_frac 0.5000000000000000 0.5000000000000000 0.0000000000000000 Si
atom_frac 0.4999999999999999 0.7500000000000000 0.2500000000000000 Si
atom_frac 0.7500000000000000 0.0000000000000000 0.7500000000000000 Si
atom_frac 0.7500000000000000 0.2500000000000000 0.0000000000000000 Si
atom_frac 0.7500000000000000 0.5000000000000000 0.2500000000000000 Si
atom_frac 0.7500000000000000 0.7500000000000000 0.5000000000000000 Si
atom_frac 0.2500000000000000 0.2500000000000000 0.0000000000000000 Si
atom_frac 0.2500000000000000 0.5000000000000000 0.2500000000000000 Si
atom_frac 0.2500000000000000 0.7500000000000000 0.5000000000000000 Si
atom_frac 0.2500000000000000 0.0000000000000000 0.7500000000000000 Si
atom_frac 0.5000000000000000 0.2500000000000000 0.2500000000000000 Si
atom_frac 0.5000000000000000 0.5000000000000000 0.5000000000000000 Si
atom_frac 0.4999999999999999 0.7500000000000000 0.7500000000000000 Si
atom_frac 0.4999999999999999 0.0000000000000000 0.0000000000000000 Si
atom_frac 0.7500000000000000 0.2500000000000000 0.5000000000000000 Si
atom_frac 0.7500000000000000 0.5000000000000000 0.7500000000000000 Si
atom_frac 0.7500000000000000 0.7500000000000000 0.0000000000000000 Si
atom_frac 0.7499999999999999 0.0000000000000000 0.2500000000000000 Si
atom_frac 0.0000000000000000 0.2500000000000000 0.7500000000000000 Si
atom_frac 0.0000000000000000 0.5000000000000000 0.0000000000000000 Si
atom_frac 0.0000000000000000 0.7500000000000000 0.2500000000000000 Si
atom_frac 0.0000000000000000 0.0000000000000000 0.5000000000000000 Si
atom_frac 0.1250000000000000 0.1250000000000000 0.1250000000000000 Si
atom_frac 0.1250000000000000 0.3750000000000000 0.3750000000000000 Si
atom_frac 0.1250000000000000 0.6250000000000000 0.6250000000000000 Si
atom_frac 0.1250000000000000 0.8749999999999999 0.8749999999999999 Si
atom_frac 0.3750000000000000 0.1250000000000000 0.3750000000000000 Si
atom_frac 0.3750000000000000 0.3750000000000000 0.6250000000000000 Si
atom_frac 0.3749999999999999 0.6250000000000000 0.8749999999999999 Si
atom_frac 0.3749999999999999 0.8749999999999999 0.1250000000000000 Si
atom_frac 0.6250000000000000 0.1250000000000000 0.6250000000000000 Si
atom_frac 0.6250000000000000 0.3750000000000000 0.8749999999999999 Si
atom_frac 0.6250000000000000 0.6250000000000000 0.1250000000000000 Si
atom_frac 0.6250000000000000 0.8749999999999999 0.3750000000000000 Si
atom_frac 0.8749999999999999 0.1250000000000000 0.8749999999999999 Si
atom_frac 0.8749999999999999 0.3750000000000000 0.1250000000000000 Si
atom_frac 0.8749999999999999 0.6250000000000000 0.3750000000000000 Si
atom_frac 0.8749999999999999 0.8749999999999999 0.6250000000000000 Si
atom_frac 0.3750000000000000 0.3750000000000000 0.1250000000000000 Si
atom_frac 0.3749999999999999 0.6250000000000000 0.3750000000000000 Si
atom_frac 0.3749999999999999 0.8749999999999999 0.6250000000000000 Si
atom_frac 0.3749999999999999 0.1250000000000000 0.8749999999999999 Si
atom_frac 0.6250000000000000 0.3750000000000000 0.3750000000000000 Si
atom_frac 0.6250000000000000 0.6250000000000000 0.6250000000000000 Si
atom_frac 0.6249999999999999 0.8749999999999999 0.8749999999999999 Si
atom_frac 0.6249999999999999 0.1250000000000000 0.1250000000000000 Si
atom_frac 0.8749999999999999 0.3750000000000000 0.6250000000000000 Si
atom_frac 0.8749999999999999 0.6250000000000000 0.8749999999999999 Si
atom_frac 0.8749999999999999 0.8749999999999999 0.1250000000000000 Si
atom_frac 0.8749999999999999 0.1250000000000000 0.3750000000000000 Si
atom_frac 0.1250000000000000 0.3750000000000000 0.8749999999999999 Si
atom_frac 0.1250000000000000 0.6250000000000000 0.1250000000000000 Si
atom_frac 0.1250000000000000 0.8749999999999999 0.3750000000000000 Si
atom_frac 0.1250000000000000 0.1250000000000000 0.6250000000000000 Si
