#=======================================================
# FHI-aims file: geometry.in.supercell.300K.000
# Created using the Atomic Simulation Environment (ASE)
# Mon Feb 11 17:05:20 2019

# Additional information:
#  created from force constants
#  T = 300 K
#=======================================================
lattice_vector 10.8521350516399995 -0.0000000000000000 0.0000000000000000 
lattice_vector -0.0000000000000000 10.8521350516399995 0.0000000000000000 
lattice_vector 0.0000000000000000 0.0000000000000000 10.8521350516399995 
atom 0.0708703990996175 -0.0168762741772300 0.0293042062032763 Si
  velocity -0.0072598576249121 5.7007507452387554 1.9529941550600785
atom -0.0049927466858780 2.7773685895016880 2.7534110179169762 Si
  velocity -0.9810478529849159 1.0882454147918825 0.6287641708129164
atom -0.1153442646552247 5.3935742430117140 5.4981500065704774 Si
  velocity -0.9132962274896339 1.9305746647557145 -0.5041402004954446
atom 0.0318930663803223 8.2198197880908239 8.1610599237219557 Si
  velocity 2.3288331106607472 -0.2845085366495955 -0.5562517819990458
atom 2.8537548815034044 0.1461145448990981 2.7728402256827835 Si
  velocity 6.5032845028824982 2.7666177699715435 -0.4430371242349741
atom 2.5083020288742790 2.7081949714449625 5.4181746666395085 Si
  velocity -5.3816894190931235 -0.8958251994384259 1.2368295452867009
atom 2.7205895953038088 5.4072836072880133 8.0840704834538428 Si
  velocity -1.7175155246500335 -1.1721073995184610 -0.5113722307429498
atom 2.7076250010082159 8.2590641067462496 -0.0162520887214194 Si
  velocity 2.4613142447826246 -0.7151579532154574 5.5219664891567248
atom 5.4686518201509191 0.0190500007829048 5.5459398876030210 Si
  velocity -7.2934692623879878 5.8724200335407684 0.6867622604795705
atom 5.3857889713991902 2.6852321599877214 8.1110579151608402 Si
  velocity -0.4747421812690505 2.2974821989933334 0.9819533325995835
atom 5.3342924406957550 5.3589791196581817 -0.0198289651274087 Si
  velocity -1.6741278479460837 -5.8099222516625701 -3.4935043372794374
atom 5.3344490345261057 8.0990080170772227 2.7395726619801462 Si
  velocity -0.9831879835846719 -0.9669959869279443 -0.4131340047135891
atom 8.2963239397048838 0.0004689245794425 8.1033872300798446 Si
  velocity 1.5290943397517178 -0.2163337503873228 4.4626168123440557
atom 7.9764005074750335 2.7456146651456290 0.0653049237605559 Si
  velocity -0.7521688118174827 -1.5790972450152834 2.2434928918323220
atom 8.2255994833282653 5.5254288290885656 2.6273263515435152 Si
  velocity -1.1147842334107132 -1.0203964375056966 -0.5711251159303919
atom 8.0643789844736311 8.1204803051647403 5.4325374804337656 Si
  velocity -4.9790742768043108 -1.1794518459914902 1.2937322576424783
atom 2.7237549995737314 2.7215179154912130 -0.0307264946093108 Si
  velocity 1.3998117856849206 4.9173199965996561 -2.6184326880001252
atom 2.6520482459550498 5.3634156345983897 2.6890713564856967 Si
  velocity -4.9564934865531391 -4.8676872156530813 1.9504183901554852
atom 2.6791552049494003 8.0672021270669987 5.3780692295268588 Si
  velocity 2.9257277387373612 -0.9320754404895958 0.3233540377288899
atom 2.6911198358516653 -0.1258626875894807 8.1687788685821658 Si
  velocity 2.0762826783546120 1.5140604970058984 1.9188644376996957
atom 5.4211494178691000 2.6376913993153810 2.7588039275498542 Si
  velocity -2.6410080381417953 -2.6533052157621206 0.3881807104755758
atom 5.4492697236851857 5.3068099177099102 5.3635697535711042 Si
  velocity -1.2924681194928938 -0.1096964851080724 1.9401797050260385
atom 5.4682506435619675 8.0260138356100637 8.2782408251595747 Si
  velocity 1.2792019834233312 -1.0416233428218133 -5.1295605307663719
atom 5.5631571274876910 -0.0652240870003084 -0.1147157097596270 Si
  velocity -0.5005296135760955 -2.4254030597188962 2.2269363950171077
atom 8.1468346244113903 2.7743206803961447 5.3369810714739918 Si
  velocity 2.6297952230121400 -1.9659407164939495 3.8789678644462966
atom 8.1246262642141200 5.5497376905878752 8.2298323081950748 Si
  velocity 3.7965572867546360 -0.0895059776240105 0.4499068685050522
atom 8.1321371148875983 8.2426516220952077 0.0248267718183955 Si
  velocity 4.8086465939437559 -0.2824724158468840 -3.9802022582651770
atom 8.2340999985972037 -0.1224604371902505 2.7086852210563825 Si
  velocity 2.6327572945487860 0.5773965928350212 2.5072819934422164
atom -0.0128627397523084 2.7898889817713122 8.0536917949207805 Si
  velocity -2.4238161399530491 1.1544338866605111 4.7646513023817230
atom 0.0288452121291739 5.4699740413137956 -0.0460355011253093 Si
  velocity -4.6387715311364257 1.6385642927819168 1.7108417885000942
atom 0.1986278098639865 8.0687063519725140 2.6106193135119096 Si
  velocity -1.0728442705681474 4.2974304333671514 -0.5580926826114827
atom 0.0085097716269463 -0.0680434036441180 5.4337461148089323 Si
  velocity 4.7815110653760007 -1.0142990749545158 -0.1362051606583543
atom 1.3721127389477104 1.3605200021285615 1.3478567370128272 Si
  velocity -1.5592613792609682 4.8168659133396821 -0.1817553061629401
atom 1.2108726369596365 4.1264003240252869 4.0820582816347581 Si
  velocity -3.0512469369901249 5.4244153640395796 1.7834347456633686
atom 1.3472185952018083 6.8339587127122234 6.7716170219146363 Si
  velocity -0.3802299460401449 -3.3848609903390363 0.1367575251994840
atom 1.3733237912417484 9.5186414949485112 9.5126883128797584 Si
  velocity 2.5713533886073749 5.0504148719366295 -5.7847083887335788
atom 4.0857348193060252 1.4565707004252291 4.2565812115376813 Si
  velocity -0.3868573857007302 0.8288169031355405 0.1665004629366717
atom 4.0504588759777649 4.0382237735167958 6.7487089045567252 Si
  velocity 6.5255967073959598 -4.4699898556243722 11.1480311148193483
atom 4.0079622391579068 6.7233346585761700 9.5235041576421811 Si
  velocity -0.8037792863671634 1.3689694691229179 1.8200964551744552
atom 4.1749390334432244 9.6278896212416978 1.4443588628498203 Si
  velocity 0.8999155702491214 -4.1887197218814114 -0.3827669468604918
atom 6.7938607177944803 1.3090586203742109 6.8464635392773916 Si
  velocity -0.8494718834554648 1.9317206058742291 -0.1397040918882251
atom 6.6540497578697781 4.0828840107337268 9.4524008735061251 Si
  velocity 3.4062477232662460 2.9258991579308855 -0.3800374978175312
atom 6.7142163074789085 6.8777837470901364 1.2453643713667497 Si
  velocity 0.7642403190881185 -6.0726755587876866 -2.2163599664016038
atom 6.8039918847195473 9.4440889272578019 4.0642673482134333 Si
  velocity -2.1114135581408329 1.1342892761142769 -2.4447948000987072
atom 9.5109560337749670 1.4785366257743202 9.5468451390751170 Si
  velocity -1.5585519426986754 -5.0311696914548936 -3.9236613536022777
atom 9.4640850191418480 4.0581889408479963 1.3035952747631252 Si
  velocity 0.7515890424563078 -0.1736007705531290 -3.4776029285112524
atom 9.5643988164848466 6.8458637980019015 4.0090829018636418 Si
  velocity 4.3948837918634513 3.3309176771463975 -5.0909895058144787
atom 9.4823967113607388 9.4730576525061974 6.7851662710296727 Si
  velocity -3.2186089817141408 2.7073697805827242 2.6409458781753461
atom 4.0383687194903279 3.9920009637957943 1.4227049190042034 Si
  velocity -0.0220522138732455 3.2964317347031904 -1.8839873193616370
atom 4.0172184813483351 6.7733591145468122 4.0314784037944458 Si
  velocity 1.8353948869516314 2.1651903815335425 2.3879289721163270
atom 4.0044686226903492 9.4323221812064055 6.8604805640331286 Si
  velocity 2.2767528051330799 -2.8463184847857614 2.6805656313116231
atom 4.0253385533900827 1.2719708313237625 9.5014898378447974 Si
  velocity 1.5386679949798101 -3.5035902402010026 -4.9417112771626046
atom 6.7975331977076339 4.0992556877815192 3.9631189081082359 Si
  velocity -3.6557598883698015 -0.7156656034942929 1.2947063935510827
atom 6.6842506026923925 6.7471021555483670 6.8621993034309892 Si
  velocity 5.5301058780006480 0.6008432749470437 -3.4590681827035059
atom 6.9274200425613115 9.5001162084629538 9.4704819892819927 Si
  velocity -0.0343001081764798 4.2042576731208667 -0.1441722600361951
atom 6.7756823700060496 1.2598754008782107 1.4245415292960701 Si
  velocity -1.1310423985961628 -2.6483299109307019 -2.2264177363026412
atom 9.3876748185772172 4.1564760900947455 6.7556053930543518 Si
  velocity -0.0933318101578242 2.9967758381909526 -3.1704712984123358
atom 9.5431162056280829 6.8974381266866853 9.5523718086336338 Si
  velocity -4.7153472546201805 -2.5639263264890784 0.4203024398499876
atom 9.6214996344416015 9.4652290843332043 1.3405650946290373 Si
  velocity -3.4135135848754268 -4.6556228509797482 -1.0137605913798065
atom 9.4648791008338904 1.2979753234458136 4.1006202108116510 Si
  velocity -0.4685298042831657 1.5123053973919005 -6.2531315776737202
atom 1.3859786569187620 4.1066323047902191 9.4306728442345715 Si
  velocity 4.8560060641322220 -0.2199740085144463 2.4253045411381984
atom 1.4811228585177565 6.7608225842427636 1.2081823353261862 Si
  velocity -1.5676119245628777 -3.8279316404924435 2.2992528906170486
atom 1.3709494956199106 9.4905872603001189 3.9822975798033977 Si
  velocity 2.2264088046902488 -1.9006211675861417 -3.2193675905835333
atom 1.3561828170812837 1.2683947011414107 6.8598935331318058 Si
  velocity -3.9173876036415738 -2.6060747074280091 -1.0924591496626355
