#=======================================================
# FHI-aims file: geometry.in.supercell.300K.001
# Created using the Atomic Simulation Environment (ASE)
# Mon Feb 11 17:05:20 2019

# Additional information:
#  created from force constants
#  T = 300 K
#=======================================================
lattice_vector 10.8521350516399995 -0.0000000000000000 0.0000000000000000 
lattice_vector -0.0000000000000000 10.8521350516399995 0.0000000000000000 
lattice_vector 0.0000000000000000 0.0000000000000000 10.8521350516399995 
atom 0.0708703990996175 -0.0168762741772300 0.0293042062032763 Si
  velocity 3.3867074715847973 -0.3409647550627907 0.7173217592094847
atom -0.0049927466858780 2.7773685895016880 2.7534110179169762 Si
  velocity 1.1044587053349431 0.0601385561259680 6.9583538717177937
atom -0.1153442646552247 5.3935742430117140 5.4981500065704774 Si
  velocity 1.0807058123127029 -3.7378127724150896 -0.6557493773382908
atom 0.0318930663803223 8.2198197880908239 8.1610599237219557 Si
  velocity 0.2241830800104535 2.9176601969061902 -1.0410874431397816
atom 2.8537548815034044 0.1461145448990981 2.7728402256827835 Si
  velocity -4.9668405145759742 6.2063008910190112 1.6320223679950725
atom 2.5083020288742790 2.7081949714449625 5.4181746666395085 Si
  velocity -2.2389774963448010 -0.2336164476661342 0.8473426769578071
atom 2.7205895953038088 5.4072836072880133 8.0840704834538428 Si
  velocity -6.6226270461070964 5.5443549165914003 -3.5595967621364957
atom 2.7076250010082159 8.2590641067462496 -0.0162520887214194 Si
  velocity 4.4717564292188428 4.5309082070506026 0.3658237288369086
atom 5.4686518201509191 0.0190500007829048 5.5459398876030210 Si
  velocity -1.8779900884043919 -1.4733718713517152 -0.1262422173319663
atom 5.3857889713991902 2.6852321599877214 8.1110579151608402 Si
  velocity -3.0840706592413065 -4.0979072907585579 -0.2495059095164417
atom 5.3342924406957550 5.3589791196581817 -0.0198289651274087 Si
  velocity -1.7880233112366410 2.5497200044219261 0.3097225771082539
atom 5.3344490345261057 8.0990080170772227 2.7395726619801462 Si
  velocity -0.8926270852080070 -3.7371089576920595 -0.0300872054484572
atom 8.2963239397048838 0.0004689245794425 8.1033872300798446 Si
  velocity -3.1739080406690805 3.3863515517825196 7.2996947821464193
atom 7.9764005074750335 2.7456146651456290 0.0653049237605559 Si
  velocity 4.2874016066588059 2.5012765407337900 -0.9104401175179860
atom 8.2255994833282653 5.5254288290885656 2.6273263515435152 Si
  velocity 1.6334561307171724 5.6193593810010567 -0.8147995917524592
atom 8.0643789844736311 8.1204803051647403 5.4325374804337656 Si
  velocity 1.3446726661228949 3.2002855395803653 1.4362638724057235
atom 2.7237549995737314 2.7215179154912130 -0.0307264946093108 Si
  velocity -5.9355644031969312 2.8303717788367924 -0.7279439882635388
atom 2.6520482459550498 5.3634156345983897 2.6890713564856967 Si
  velocity -5.3056506086378867 1.2256727907991110 -0.1043255472766477
atom 2.6791552049494003 8.0672021270669987 5.3780692295268588 Si
  velocity 1.0338352877669603 -0.5270559663323211 -1.5399242917327063
atom 2.6911198358516653 -0.1258626875894807 8.1687788685821658 Si
  velocity 1.6410181325125190 -0.4848089772629708 2.7928077668407423
atom 5.4211494178691000 2.6376913993153810 2.7588039275498542 Si
  velocity 3.6436372795259859 5.4521824069001967 0.5972543708202646
atom 5.4492697236851857 5.3068099177099102 5.3635697535711042 Si
  velocity 5.4245501869596700 -5.0531223358919419 3.2696059992938733
atom 5.4682506435619675 8.0260138356100637 8.2782408251595747 Si
  velocity 1.6412459432669950 2.1465443207362811 3.8313405843298036
atom 5.5631571274876910 -0.0652240870003084 -0.1147157097596270 Si
  velocity -1.3227471220489115 -4.1293497512655755 -3.5475917155687728
atom 8.1468346244113903 2.7743206803961447 5.3369810714739918 Si
  velocity 2.3023866558826711 -3.7655984216359633 -4.4697179968698384
atom 8.1246262642141200 5.5497376905878752 8.2298323081950748 Si
  velocity 2.9631994806715722 -7.3674507351445229 3.6323723487008905
atom 8.1321371148875983 8.2426516220952077 0.0248267718183955 Si
  velocity -1.8174021994141030 3.0554075054075889 -2.1928894380058104
atom 8.2340999985972037 -0.1224604371902505 2.7086852210563825 Si
  velocity 0.6841390613419973 -1.2339003923725207 -0.6666451339684748
atom -0.0128627397523084 2.7898889817713122 8.0536917949207805 Si
  velocity -1.2319654189454268 -1.2063562542132100 3.2062089799374558
atom 0.0288452121291739 5.4699740413137956 -0.0460355011253093 Si
  velocity -5.7964891326782819 0.6989516765137761 -1.2242550225069271
atom 0.1986278098639865 8.0687063519725140 2.6106193135119096 Si
  velocity -0.8322325812935489 -2.2581988101678441 2.2625677230356271
atom 0.0085097716269463 -0.0680434036441180 5.4337461148089323 Si
  velocity 2.2809567179219759 -0.6311147587155187 -5.8585491831405090
atom 1.3721127389477104 1.3605200021285615 1.3478567370128272 Si
  velocity -2.3506813019233790 1.3422648724827788 1.3595112584487925
atom 1.2108726369596365 4.1264003240252869 4.0820582816347581 Si
  velocity -0.2713591290334553 -0.9081491820899531 -0.7232064491570329
atom 1.3472185952018083 6.8339587127122234 6.7716170219146363 Si
  velocity 5.1811415731607982 2.6482710624380643 -1.1126029176608609
atom 1.3733237912417484 9.5186414949485112 9.5126883128797584 Si
  velocity -1.7981813471563031 -4.9396372581291370 -3.2383473598141963
atom 4.0857348193060252 1.4565707004252291 4.2565812115376813 Si
  velocity 1.1695558906601455 4.6892543093889154 0.6507365137139345
atom 4.0504588759777649 4.0382237735167958 6.7487089045567252 Si
  velocity 0.4782777545410499 -3.8470108601432895 -4.6892282276444499
atom 4.0079622391579068 6.7233346585761700 9.5235041576421811 Si
  velocity 1.7217199867235877 -7.2250992261802489 -1.4914225636144909
atom 4.1749390334432244 9.6278896212416978 1.4443588628498203 Si
  velocity 2.8395609935951120 1.5566774369854726 -5.5180355721893877
atom 6.7938607177944803 1.3090586203742109 6.8464635392773916 Si
  velocity -0.0232924685890524 0.7375117540327276 0.8902842097387612
atom 6.6540497578697781 4.0828840107337268 9.4524008735061251 Si
  velocity 0.2367462882083495 1.6413326657716965 1.0626661568292817
atom 6.7142163074789085 6.8777837470901364 1.2453643713667497 Si
  velocity 1.2115615786626082 -3.2987150148830313 3.7630455517708530
atom 6.8039918847195473 9.4440889272578019 4.0642673482134333 Si
  velocity 1.0333879421266856 -3.2641723943380461 1.9747558229266253
atom 9.5109560337749670 1.4785366257743202 9.5468451390751170 Si
  velocity -2.0435350004102264 4.3523526805188668 2.0690757046200314
atom 9.4640850191418480 4.0581889408479963 1.3035952747631252 Si
  velocity -3.8660962418182954 -3.6984543241741208 -1.6600895620551688
atom 9.5643988164848466 6.8458637980019015 4.0090829018636418 Si
  velocity 2.4997314061326339 -2.0681465562733554 3.6946855225238466
atom 9.4823967113607388 9.4730576525061974 6.7851662710296727 Si
  velocity 3.9860201509437481 0.8210275850066583 0.3709371079422198
atom 4.0383687194903279 3.9920009637957943 1.4227049190042034 Si
  velocity 0.2585431697161047 -0.5312816977319439 3.1669641552121264
atom 4.0172184813483351 6.7733591145468122 4.0314784037944458 Si
  velocity 0.3757266107413239 -3.6836781328504138 -1.6398530881416125
atom 4.0044686226903492 9.4323221812064055 6.8604805640331286 Si
  velocity -1.1539102534982859 -0.9550932117960043 -4.0616038402013261
atom 4.0253385533900827 1.2719708313237625 9.5014898378447974 Si
  velocity -0.8391320656981273 1.9226262223439441 3.9449485482096995
atom 6.7975331977076339 4.0992556877815192 3.9631189081082359 Si
  velocity -3.3906461766842346 0.8987279659866153 -1.4923798448936985
atom 6.6842506026923925 6.7471021555483670 6.8621993034309892 Si
  velocity 0.3694362525308152 0.7964838483810003 -1.2487245563655691
atom 6.9274200425613115 9.5001162084629538 9.4704819892819927 Si
  velocity 3.1893055538848141 -0.4593294236305276 4.4550936045161471
atom 6.7756823700060496 1.2598754008782107 1.4245415292960701 Si
  velocity -1.9438918184450207 -3.2523401533343046 -1.2818741242229377
atom 9.3876748185772172 4.1564760900947455 6.7556053930543518 Si
  velocity -1.1534002442134932 -2.4021620334936138 0.8426883160448551
atom 9.5431162056280829 6.8974381266866853 9.5523718086336338 Si
  velocity 0.9236031006214874 1.8986124488018774 0.2355561814040291
atom 9.6214996344416015 9.4652290843332043 1.3405650946290373 Si
  velocity 7.5589547865117055 -0.5758681552304104 -1.4519336840861443
atom 9.4648791008338904 1.2979753234458136 4.1006202108116510 Si
  velocity -2.2448737618374057 -0.3079961275842975 -3.6162319954925848
atom 1.3859786569187620 4.1066323047902191 9.4306728442345715 Si
  velocity -3.4221355471328785 2.8760736239680318 -5.9110108487077593
atom 1.4811228585177565 6.7608225842427636 1.2081823353261862 Si
  velocity -0.5896556317367088 -1.3471085005240484 4.7653628094810525
atom 1.3709494956199106 9.4905872603001189 3.9822975798033977 Si
  velocity -0.4170125231896116 0.0814555473168888 -2.3622989885602554
atom 1.3561828170812837 1.2683947011414107 6.8598935331318058 Si
  velocity 0.2821954259843528 4.7770212157513905 -3.1839011092427039
