# AB_hP4_186_b_b params=3.2163,1.6291894412834624,0.87588,0.49912 SG#=186 [ANRL doi: 10.1016/j.commatsci.2017.01.017 (part 1), arXiv:1806.07864 (part 2)]
# AFLOW::AIMS BEGIN 
lattice_vector      1.58292837     -2.74171237      0.00000000
lattice_vector      1.58292837      2.74171237      0.00000000
lattice_vector      0.00000000      0.00000000      5.15722593
atom_frac       0.33333333      0.66666667      0.49928809 Ga
atom_frac       0.66666667      0.33333333      0.99928809 Ga
atom_frac       0.33333333      0.66666667      0.87571191 N
atom_frac       0.66666667      0.33333333      1.37571191 N
# format: symmetry_n_params [n n_lv n_fracpos]
symmetry_n_params 4 2 2
symmetry_params a c z1 z2
symmetry_lv (1.0/2.0)*a , -(sqrt(3.0)/2.0)*a , 0
symmetry_lv (1.0/2.0)*a , (sqrt(3.0)/2.0)*a , 0
symmetry_lv 0 , 0 , c
symmetry_frac (1.0/3.0) , (2.0/3.0) , z2
symmetry_frac (2.0/3.0) , (1.0/3.0) , ((1.0/2.0)+z2)
symmetry_frac (1.0/3.0) , (2.0/3.0) , z1
symmetry_frac (2.0/3.0) , (1.0/3.0) , ((1.0/2.0)+z1)
# AFLOW::AIMS END 
