#=======================================================
# FHI-aims file: ./geometry.in
# Created using the Atomic Simulation Environment (ASE)
# Wed Mar  6 16:48:21 2019
#=======================================================
lattice_vector 5.4399999999999995 0.0000000000000001 0.0000000000000000 
lattice_vector 0.0000000000000001 5.4399999999999995 0.0000000000000000 
lattice_vector -0.0000000000000001 -0.0000000000000001 5.4399999999999995 
atom 0.0300000000000000 0.0000000000000000 0.0000000000000000 Si
atom 5.4399999999999995 2.7199999999999998 2.7199999999999998 Si
atom 2.7199999999999998 0.0000000000000000 2.7199999999999998 Si
atom 2.7199999999999998 2.7199999999999998 0.0000000000000000 Si
atom 1.3599999999999999 1.3599999999999999 1.3599999999999999 Si
atom 1.3599999999999997 4.0800000000000001 4.0800000000000001 Si
atom 4.0800000000000001 1.3599999999999999 4.0800000000000001 Si
atom 4.0800000000000001 4.0800000000000001 1.3599999999999999 Si
