#=======================================================
# FHI-aims file: geometry.in.supercell
# Created using the Atomic Simulation Environment (ASE)
# Tue Dec  4 13:58:59 2018
#=======================================================
lattice_vector 0.0000000000000000 2.0249999999999999 2.0249999999999999 
lattice_vector 2.0249999999999999 0.0000000000000000 2.0249999999999999 
lattice_vector 4.0499999999999998 4.0499999999999998 0.0000000000000000 
atom 0.0000000000000000 0.0000000000000000 0.0000000000000000 Al
atom 2.0249999999999999 2.0249999999999999 0.0000000000000000 Al
