#=======================================================
# FHI-aims file: geometry.in.primitive
# Created using the Atomic Simulation Environment (ASE)
# Tue Dec  4 13:58:59 2018
#=======================================================
lattice_vector 0.0000000000000000 2.0249999999999999 2.0249999999999999 
lattice_vector 2.0249999999999999 0.0000000000000000 2.0249999999999999 
lattice_vector 2.0249999999999999 2.0249999999999999 0.0000000000000000 
atom_frac 0.0000000000000000 0.0000000000000000 0.0000000000000000 Al
