#=======================================================
# FHI-aims file: ./geometry.in
# Created using the Atomic Simulation Environment (ASE)
# Mon Jan 28 15:13:23 2019
#=======================================================
lattice_vector 0.0000000000000000 2.7999999999999998 2.7999999999999998 
lattice_vector 2.7999999999999998 0.0000000000000000 2.7999999999999998 
lattice_vector 2.7999999999999998 2.7999999999999998 0.0000000000000000 
atom 0.0000000000000000 0.0000000000000000 0.0000000000000000 Si
atom 1.3999999999999999 1.3999999999999999 1.3999999999999999 Si
