#=======================================================
# FHI-aims file: geometry.in.prepared
# Created using the Atomic Simulation Environment (ASE)
# Thu Jan  3 10:52:24 2019
#=======================================================
lattice_vector 5.4260675258199997 -0.0000000000000000 0.0000000000000000 
lattice_vector -0.0000000000000000 5.4260675258199997 0.0000000000000000 
lattice_vector 0.0000000000000000 0.0000000000000000 5.4260675258199997 
atom 0.0000000000000000 0.0000000000000000 0.0000000000000000 Si
  velocity 2.2203496657599637 3.7604758928914070 -3.2409285772342176
atom 5.4260675258199997 2.7130337629099999 2.7130337629099999 Si
  velocity 2.2203496657599628 -0.9568621508700604 -2.1634342401440740
atom 2.7130337629099999 0.0000000000000000 2.7130337629099999 Si
  velocity -0.3809517762232731 -0.3964923093590335 -1.6036681559800487
atom 2.7130337629099999 2.7130337629099999 0.0000000000000000 Si
  velocity -0.3809517762232725 2.2437612050262614 4.6764290650765643
atom 1.3565168814549999 1.3565168814549999 1.3565168814549999 Si
  velocity 0.3809517762232714 -1.2548676662803055 2.2429565249660137
atom 1.3565168814549997 4.0695506443650000 4.0695506443650000 Si
  velocity 0.3809517762232755 -1.4045037226173100 -4.0371406960906020
atom 4.0695506443650000 1.3565168814549999 4.0695506443650000 Si
  velocity -2.2203496657599664 -4.5997333753003593 2.6016402082482539
atom 4.0695506443650000 4.0695506443650000 1.3565168814549999 Si
  velocity -2.2203496657599624 2.6082221265093981 1.5241458711581086
