#=======================================================
# FHI-aims file: Si_-111_1-11_11-1_5.426/geometry.in
# Created using the Atomic Simulation Environment (ASE)
# Thu Sep 20 12:25:21 2018
#=======================================================
lattice_vector 0.0000000000000000 2.7130337629099999 2.7130337629099999 
lattice_vector 2.7130337629099999 0.0000000000000000 2.7130337629099999 
lattice_vector 2.7130337629099999 2.7130337629099999 0.0000000000000000 
atom 0.0000000000000000 0.0000000000000000 0.0000000000000000 Si
atom 1.3565168814549999 1.3565168814549999 1.3565168814549999 Si
