#=======================================================
# FHI-aims file: geometry.in.supercell.300K
# Created using the Atomic Simulation Environment (ASE)
# Sat Jul 13 03:00:40 2019

# Additional information:
#  created from MB distrubtion
#  T = 300.0 K
#  quantum:           False
#  deterministic:     False
#  Sobol numbers:     False
#  Random seed:       178000506
#  Sample number:     1
#=======================================================
lattice_vector 5.4260675258199997 -0.0000000000000000 0.0000000000000000 
lattice_vector -0.0000000000000000 5.4260675258199997 0.0000000000000000 
lattice_vector 0.0000000000000000 0.0000000000000000 5.4260675258199997 
atom 0.0000000000000000 0.0000000000000000 0.0000000000000000 Si
  velocity 0.4254732610296950 -2.7728582975626033 -1.1691080337953113
atom 0.0000000000000000 2.7130337629099999 2.7130337629099999 Si
  velocity -3.3705980165081257 3.3910279358947828 0.8679927459341984
atom 2.7130337629099999 0.0000000000000000 2.7130337629099999 Si
  velocity 5.3272225118298628 4.3064856799301463 2.0084350672617566
atom 2.7130337629099999 2.7130337629099999 0.0000000000000000 Si
  velocity 0.3066290927752656 3.0897965929789453 2.2714380612487872
atom 1.3565168814549999 1.3565168814549999 1.3565168814549999 Si
  velocity -7.6189974432933543 -2.8864220186190868 -0.3865945949209104
atom 1.3565168814549999 4.0695506443650000 4.0695506443650000 Si
  velocity -0.7029301879526707 -0.9497952329295193 -2.5221165086230628
atom 4.0695506443650000 1.3565168814549999 4.0695506443650000 Si
  velocity 1.3111165882746574 -4.3696360739534272 -0.8129677121915934
atom 4.0695506443650000 4.0695506443650000 1.3565168814549999 Si
  velocity 4.3220841938446704 0.1914014142607625 -0.2570790249138631
