#=======================================================
# FHI-aims file: geometry.in.supercell
# Created using the Atomic Simulation Environment (ASE)
# Tue Nov 27 18:02:08 2018

# Additional information:
#  Number of atoms:     120
#  Spacegroup:          C2/m (12)
#  supercell_matrix:    [1, -1, 0, 3, 3, 0, 0, 0, 2]
#=======================================================
lattice_vector 12.4553718900000003 0.0015739800000001 0.0013105200000000 
lattice_vector -0.0011673900000027 9.2474709600000011 -0.0010487400000000 
lattice_vector -2.7817755200000001 0.0009435400000000 11.4158314999999995 
atom 0.0000000000000000 0.0000000000000000 0.0000000000000000 Ga
atom 8.2540569499999972 9.2494274100000009 8.0523838900000015 Ga
atom 0.5038450900000006 0.0012886800000003 10.7956196800000015 Ga
atom 4.9684363499999984 9.2490822800000014 8.6725957000000005 Ga
atom -0.9113291199999994 0.0007362900000006 7.5028175600000004 O
atom 9.1653860999999992 9.2486911300000010 0.5495663200000002 O
atom 3.0260199000000014 0.0013299700000007 8.3462343800000003 O
atom 2.4462615399999961 9.2490409900000028 11.1219810000000017 O
atom 6.8890246599999978 9.2494036700000031 9.3663563199999995 O
atom -1.4167432199999992 0.0009673000000004 10.1018590699999997 O
atom -1.3908877600000000 0.0004717700000000 5.7079157500000006 Ga
atom 9.6449447099999972 9.2489556400000001 2.3444681400000014 Ga
atom 1.8947328500000005 0.0008169100000002 5.0877039300000027 Ga
atom 6.3593241099999984 9.2486105100000007 2.9646799500000007 Ga
atom 0.4795586400000005 0.0002645200000004 1.7949018100000007 O
atom 7.7744983399999983 9.2491629000000017 6.2574820700000027 O
atom 4.4169076600000015 0.0008582000000006 2.6383186300000006 O
atom 3.8371492999999988 9.2485692200000020 5.4140652500000002 O
atom 8.2799124199999987 9.2489319000000023 3.6584405700000002 O
atom -0.0258554600000006 0.0004955300000002 4.3939433200000009 O
atom 2.0273438300000017 1.5424146200000004 8.0526025800000003 Ga
atom -1.2582767700000002 1.5420694900000005 8.6728143899999992 Ga
atom 2.9386729800000015 1.5416783399999998 0.5497850100000008 O
atom 8.6749203100000027 1.5436021799999999 11.1235102100000010 O
atom 0.6623115399999991 1.5423908799999995 9.3665750100000018 O
atom 3.4182315899999995 1.5419428500000008 2.3446868300000006 Ga
atom 0.1326109899999997 1.5415977200000004 2.9648986399999995 Ga
atom 1.5477852200000000 1.5421501100000001 6.2577007600000014 O
atom 10.0658080699999992 1.5431304100000001 5.4155944599999994 O
atom 2.0531993000000011 1.5419191099999998 3.6586592599999994 O
atom 6.2274913799999991 1.5420321499999998 0.0004804700000012 Ga
atom 6.7313364700000013 1.5433208299999996 10.7961001499999973 Ga
atom 5.3161622600000005 1.5427684399999997 7.5032980299999990 O
atom 9.2535112800000014 1.5433621200000003 8.3467148499999997 O
atom 4.8107481600000002 1.5429994499999995 10.1023395400000009 O
atom 4.8366036199999991 1.5425039199999997 5.7083962200000009 Ga
atom 8.1222242300000005 1.5428490600000000 5.0881844000000003 Ga
atom 6.7070500200000005 1.5422966700000007 1.7953822799999997 O
atom 10.6443990399999997 1.5428903500000004 2.6387990999999991 O
atom 6.2016359200000002 1.5425276800000005 4.3944237900000003 O
atom -0.0003891300000003 3.0824903199999998 -0.0003495800000000 Ga
atom 8.2548352099999978 3.0844467700000004 8.0530830500000015 Ga
atom 0.5034559600000008 3.0837789999999998 10.7952700999999980 Ga
atom 4.9692146099999999 3.0841016400000001 8.6732948600000004 Ga
atom -0.9117182499999998 3.0832266099999988 7.5024679800000005 O
atom 9.1661643599999998 3.0837104899999996 0.5502654800000003 O
atom 3.0256307700000007 3.0838202899999994 8.3458848000000021 O
atom 2.4470398000000007 3.0840603499999992 11.1226801600000016 O
atom 6.8898029200000019 3.0844230299999995 9.3670554799999994 O
atom -1.4171323500000013 3.0834576199999999 10.1015094899999998 O
atom -1.3912768900000003 3.0829620899999997 5.7075661700000024 Ga
atom 9.6457229700000013 3.0839749999999997 2.3451673000000017 Ga
atom 1.8943437200000000 3.0833072299999995 5.0873543500000018 Ga
atom 6.3601023699999999 3.0836298700000002 2.9653791100000007 Ga
atom 0.4791695100000001 3.0827548399999998 1.7945522300000005 O
atom 7.7752765999999998 3.0841822599999986 6.2581812299999999 O
atom 4.4165185300000012 3.0833485199999999 2.6379690500000015 O
atom 3.8379275599999985 3.0835885799999998 5.4147644100000027 O
atom 8.2806906799999993 3.0839512599999992 3.6591397300000019 O
atom -0.0262445899999992 3.0829858499999991 4.3935937400000027 O
atom 2.0269546999999988 4.6249049399999986 8.0522530000000003 Ga
atom -1.2586659000000004 4.6245598100000000 8.6724648100000028 Ga
atom 2.9382838499999995 4.6241686599999978 0.5494354300000008 O
atom 8.6745311799999989 4.6260925000000004 11.1231606300000028 O
atom 0.6619224100000007 4.6248811999999972 9.3662254300000019 O
atom 3.4178424600000010 4.6244331699999988 2.3443372500000006 Ga
atom 0.1322218599999997 4.6240880400000011 2.9645490599999995 Ga
atom 1.5473960900000012 4.6246404299999977 6.2573511799999997 O
atom 10.0654189400000025 4.6256207300000005 5.4152448800000004 O
atom 2.0528101699999990 4.6244094300000000 3.6583096800000021 O
atom 6.2271022500000006 4.6245224699999987 0.0001308900000000 Ga
atom 6.7309473400000002 4.6258111500000005 10.7957505700000027 Ga
atom 5.3157731300000002 4.6252587599999977 7.5029484499999990 O
atom 9.2531221500000012 4.6258524400000010 8.3463652699999997 O
atom 4.8103590299999999 4.6254897700000006 10.1019899599999974 O
atom 4.8362144899999997 4.6249942399999977 5.7080466400000018 Ga
atom 8.1218351000000002 4.6253393800000007 5.0878348200000003 Ga
atom 6.7066608900000002 4.6247869899999978 1.7950326999999997 O
atom 10.6440099100000012 4.6253806699999984 2.6384495200000000 O
atom 6.2012467899999990 4.6250179999999999 4.3940742100000030 O
atom -0.0007782600000006 6.1649806399999996 -0.0006991599999999 Ga
atom 8.2544460799999992 6.1669370900000002 8.0527334700000015 Ga
atom 0.5030668299999999 6.1662693200000023 10.7949205199999998 Ga
atom 4.9688254799999996 6.1665919600000016 8.6729452800000004 Ga
atom -0.9121073800000001 6.1657169299999985 7.5021183999999987 O
atom 9.1657752300000013 6.1662008100000012 0.5499159000000002 O
atom 3.0252416400000008 6.1663106100000000 8.3455352200000004 O
atom 2.4466506699999981 6.1665506699999995 11.1223305800000016 O
atom 6.8894137899999999 6.1669133499999989 9.3667058999999995 O
atom -1.4175214799999998 6.1659479399999988 10.1011599099999998 O
atom -1.3916660200000006 6.1654524099999994 5.7072165900000007 Ga
atom 9.6453338399999993 6.1664653200000004 2.3448177200000018 Ga
atom 1.8939545899999997 6.1657975500000024 5.0870047700000018 Ga
atom 6.3597132399999996 6.1661201900000009 2.9650295300000007 Ga
atom 0.4787803800000001 6.1652451600000013 1.7942026500000006 O
atom 7.7748874700000004 6.1666725799999975 6.2578316500000026 O
atom 4.4161294000000009 6.1658388399999975 2.6376194700000006 O
atom 3.8375384300000004 6.1660789000000005 5.4144148300000010 O
atom 8.2803015500000008 6.1664415799999990 3.6587901500000002 O
atom -0.0266337200000014 6.1654761699999989 4.3932441600000010 O
atom 2.0265655700000011 7.7073952599999984 8.0519034200000004 Ga
atom -1.2590550300000007 7.7070501300000007 8.6721152299999993 Ga
atom 2.9378947200000010 7.7066589799999976 0.5490858499999991 O
atom 8.6741420500000022 7.7085828200000002 11.1228110500000010 O
atom 0.6615332799999986 7.7073715199999988 9.3658758500000019 O
atom 3.4174533299999994 7.7069234899999977 2.3439876700000006 Ga
atom 0.1318327299999993 7.7065783600000008 2.9641994800000000 Ga
atom 1.5470069599999994 7.7071307499999966 6.2570016000000015 O
atom 10.0650298100000004 7.7081110500000003 5.4148953000000004 O
atom 2.0524210400000005 7.7068997499999981 3.6579600999999990 O
atom 6.2267131199999994 7.7070127900000021 -0.0002186899999987 Ga
atom 6.7305582100000008 7.7083014700000021 10.7954009899999974 Ga
atom 5.3153839999999990 7.7077490800000010 7.5025988699999999 O
atom 9.2527330200000009 7.7083427600000016 8.3460156899999998 O
atom 4.8099698999999996 7.7079800900000022 10.1016403800000010 O
atom 4.8358253599999994 7.7074845600000010 5.7076970600000010 Ga
atom 8.1214459699999999 7.7078297000000013 5.0874852400000021 Ga
atom 6.7062717599999990 7.7072773100000012 1.7946831200000006 O
atom 10.6436207799999991 7.7078709899999982 2.6380999400000000 O
atom 6.2008576599999987 7.7075083200000023 4.3937246300000004 O
