#=======================================================
# FHI-aims file: geometry.in.supercell.0600K.000
# Created using the Atomic Simulation Environment (ASE)
# Tue Nov 12 18:22:28 2019

# Additional information:
#  created from force constants
#  T = 600.0 K
#  quantum:             False
#  deterministic:       False
#  plus_minus:          True
#  gauge_eigenvectors:  False
#  Sobol numbers:       False
#  Random seed:         4
#  Sample number:       1
#  Harmonic E_pot:        0.233eV (450.00K)
#  Propagated for:      1.0 fs
#=======================================================
lattice_vector 0.0000000000000000 2.7199999999999998 2.7199999999999998 
lattice_vector 5.4399999999999995 0.0000000000000000 5.4399999999999995 
lattice_vector 2.7199999999999998 2.7199999999999998 0.0000000000000000 
atom -0.0273710905327736 0.0874455718507334 0.1542158352867880 Si
  velocity -5.2615669039363686 -1.3212537190299776 2.6912968498603140
atom 2.7668414612417909 -0.0829522376441589 2.6446185933497359 Si
  velocity 4.2936887595822464 -2.4844965452089558 5.5544975769800802
atom 1.2716782228246324 1.5106797999125146 1.4537275281064082 Si
  velocity -5.4882510933977935 -0.0704513730016242 -4.4315618542698285
atom 4.1662130535788906 1.2048268658809078 3.9120896861018926 Si
  velocity 6.4561292377519157 3.8762016372405572 -3.8142325725705670
