#=======================================================
# FHI-aims file: geometry.in.supercell.0600K.001
# Created using the Atomic Simulation Environment (ASE)
# Tue Nov 12 16:54:12 2019

# Additional information:
#  created from force constants
#  T = 600.0 K
#  quantum:             False
#  deterministic:       False
#  plus_minus:          True
#  gauge_eigenvectors:  False
#  Sobol numbers:       False
#  Random seed:         4
#  Sample number:       2
#  Harmonic E_pot:        0.233eV (450.00K)
#  Propagated for:      1.0 fs
#=======================================================
lattice_vector 0.0000000000000000 2.7199999999999998 2.7199999999999998 
lattice_vector 5.4399999999999995 0.0000000000000000 5.4399999999999995 
lattice_vector 2.7199999999999998 2.7199999999999998 0.0000000000000000 
atom 0.0881493965071004 0.0771004408439780 0.0671430659776669 Si
    velocity 1.6953133446506568 -8.3235985077479242 0.2262824898086372
atom 2.5689405356219721 -0.0960001938295913 2.6316182548415425 Si
    velocity 2.9866401838703918 0.3030611224430644 -3.5740330562543026
atom 1.5293582278492139 1.5163791034046621 1.3782088668008095 Si
    velocity 0.1427828127083907 3.0671219617179299 -3.6324613370183272
atom 3.9735518400217109 1.2225206495809522 4.0830298123799826 Si
    velocity -4.8247363412294382 4.9534154235869279 6.9802119034639931
