#=======================================================
# FHI-aims file: geometry.in.supercell.0300K
# Created using the Atomic Simulation Environment (ASE)
# Tue Nov 26 23:16:35 2019

# Additional information:
#  created from MB distrubtion
#  T = 300.0 K
#  quantum:             False
#  deterministic:       False
#  plus_minus:          False
#  gauge_eigenvectors:  False
#  Sobol numbers:       False
#  Random seed:         1533757834
#  Sample number:       1
#=======================================================
lattice_vector 0.0000000000000000 2.7199999999999998 2.7199999999999998 
lattice_vector 5.4399999999999995 0.0000000000000000 5.4399999999999995 
lattice_vector 2.7199999999999998 2.7199999999999998 0.0000000000000000 
atom 0.0000000000000000 0.0000000000000000 0.0000000000000000 Si
    velocity 2.9995834955074905 -1.0273796141457330 7.1022810739180295
atom 2.7199999999999998 0.0000000000000000 2.7199999999999998 Si
    velocity -0.2767618934151981 0.1368167169778765 -1.7470647824023933
atom 1.3599999999999999 1.3599999999999999 1.3599999999999999 Si
    velocity -1.6306238089695628 -1.1060860855079200 0.4475054351848184
atom 4.0799999999999992 1.3599999999999999 4.0799999999999992 Si
    velocity -1.0921977931227285 1.9966489826757770 -5.8027217267004545
