#=======================================================
# FHI-aims file: geometry.in.supercell.0600K.000
# Created using the Atomic Simulation Environment (ASE)
# Tue Nov 12 16:54:12 2019

# Additional information:
#  created from force constants
#  T = 600.0 K
#  quantum:             False
#  deterministic:       False
#  plus_minus:          True
#  gauge_eigenvectors:  False
#  Sobol numbers:       False
#  Random seed:         4
#  Sample number:       1
#  Harmonic E_pot:        0.233eV (450.00K)
#  Propagated for:      1.0 fs
#=======================================================
lattice_vector 0.0000000000000000 2.7199999999999998 2.7199999999999998 
lattice_vector 5.4399999999999995 0.0000000000000000 5.4399999999999995 
lattice_vector 2.7199999999999998 2.7199999999999998 0.0000000000000000 
atom 0.0828104239730327 0.0836425818406455 0.0675208456115495 Si
    velocity -3.6436591894169479 -1.7814575110804081 0.6040621236912445
atom 2.5638248945100823 -0.0960758990971936 2.6276418026664432 Si
    velocity -2.1290009280196673 0.2273558548406901 -7.5504852313535462
atom 1.5318901640305935 1.5138808477724766 1.3921179348510166 Si
    velocity 2.6747189940878373 0.5688663295324141 10.2766067131890626
atom 3.9814745174862893 1.2185524694840726 4.0727194168709921 Si
    velocity 3.0979411233487784 0.9852353267073038 -3.3301836055267620
