#=======================================================
# FHI-aims file: geometry.in.supercell.0600K.001
# Created using the Atomic Simulation Environment (ASE)
# Tue Nov 12 18:22:28 2019

# Additional information:
#  created from force constants
#  T = 600.0 K
#  quantum:             False
#  deterministic:       False
#  plus_minus:          True
#  gauge_eigenvectors:  False
#  Sobol numbers:       False
#  Random seed:         4
#  Sample number:       2
#  Harmonic E_pot:        0.233eV (450.00K)
#  Propagated for:      1.0 fs
#=======================================================
lattice_vector 0.0000000000000000 2.7199999999999998 2.7199999999999998 
lattice_vector 5.4399999999999995 0.0000000000000000 5.4399999999999995 
lattice_vector 2.7199999999999998 2.7199999999999998 0.0000000000000000 
atom -0.0242515451513412 0.0855231817096511 0.1475200492478808 Si
  velocity -2.1420215225039412 -3.2436438601122735 -4.0044891890468417
atom 2.7547938179309872 -0.0780972231398337 2.6424987762474634 Si
  velocity -7.7539545512211312 2.3705179591162540 3.4346804747076072
atom 1.2828464638821355 1.5162123866845589 1.4571450303350248 Si
  velocity 5.6799899641053253 5.4621353990426842 -1.0140596256531413
atom 4.1639729104507586 1.1963616547456206 3.9174877870144558 Si
  velocity 4.2159861096197471 -4.5890094980466660 1.5838683399923754
