#=======================================================
# FHI-aims file: geometry.in.relaxed
# Created using the Atomic Simulation Environment (ASE)
# Mon Jan 28 15:13:53 2019

# Additional information:
# Relaxed with BFGS, fmax=0.01 eV/AA
#=======================================================
lattice_vector 0.0000000000000000 2.7145494033517692 2.7145494033423825 
lattice_vector 2.7145486940004040 0.0000000000000000 2.7145494034705693 
lattice_vector 2.7145486939445140 2.7145494034240656 0.0000000000000000 
atom_frac 0.0000000000086821 0.0000000000163844 0.9999999999913179 Si
atom_frac 0.2499999999665529 0.2500000000083808 0.2499999999839169 Si
