#=======================================================
# FHI-aims file: ./geometry.in
# Created using the Atomic Simulation Environment (ASE)
# Mon Sep 17 10:34:36 2018
#=======================================================
lattice_vector 0.0000000000000000 2.6000000000000001 2.6000000000000001 
lattice_vector 2.6000000000000001 0.0000000000000000 2.6000000000000001 
lattice_vector 2.6000000000000001 2.6000000000000001 0.0000000000000000 
atom 0.1000000000000000 0.0000000000000000 0.0000000000000000 Si
atom 1.3000000000000000 1.3000000000000000 1.3000000000000000 Si
