# 
# This is the geometry file that corresponds to the current relaxation step.
# If you do not want this file to be written, set the "write_restart_geometry" flag to .false.
#  aims_uuid : D67730AB-A836-48CF-AB06-35D61B30C991                                
# 
lattice_vector      3.09960558      0.00000000      0.00000000
lattice_vector     -1.54980279      2.68433717     -0.00000000
lattice_vector      0.00000000     -0.00000000      4.97001499
atom_frac       0.33333333      0.66666667      0.00250219 Al
atom_frac       0.66666667      0.33333333      0.12085968 N
atom_frac       0.66666667      0.33333333      0.50250219 Al
atom_frac       0.33333333      0.66666667      0.62085968 N
# 
# What follows is the current estimated Hessian matrix constructed by the BFGS algorithm.
# This is NOT the true Hessian matrix of the system.
# If you do not want this information here, switch it off using the "hessian_to_restart_geometry" keyword.
# 
trust_radius             0.2000000030
hessian_block                1       1          25.000000          -0.000000           0.000000          -0.000000          25.000000           0.000000           0.000000           0.000000          25.675821
hessian_block                1       2          -0.000000          -0.000000          -0.000000          -0.000000          -0.000000          -0.000000          -0.000000          -0.000000          -0.675821
hessian_block                1       3          -0.000000           0.000000          -0.000000           0.000000           0.000000           0.000000           0.000000           0.000000           0.675821
hessian_block                1       4           0.000000          -0.000000          -0.000000          -0.000000          -0.000000          -0.000000          -0.000000          -0.000000          -0.675821
hessian_block                2       2          25.000000           0.000000           0.000000           0.000000          25.000000           0.000000           0.000000           0.000000          25.675821
hessian_block                2       3           0.000000           0.000000           0.000000          -0.000000          -0.000000          -0.000000          -0.000000          -0.000000          -0.675821
hessian_block                2       4          -0.000000           0.000000           0.000000           0.000000           0.000000           0.000000           0.000000           0.000000           0.675821
hessian_block                3       3          25.000000          -0.000000          -0.000000          -0.000000          25.000000           0.000000          -0.000000           0.000000          25.675821
hessian_block                3       4          -0.000000           0.000000          -0.000000           0.000000          -0.000000          -0.000000           0.000000          -0.000000          -0.675821
hessian_block                4       4          25.000000          -0.000000           0.000000          -0.000000          25.000000           0.000000           0.000000           0.000000          25.675821
hessian_block_lv             1       1          13.694516           7.906533           0.000000           7.906533          20.760064           0.000000           0.000000           0.000000           4.631159
hessian_block_lv             1       2           0.000000           0.000000           0.000000           1.787589           1.032065           0.000000          -0.000000          -0.000000          -0.000000
hessian_block_lv             1       3           0.000000           0.000000          -0.000000          -0.000000          -0.000000          -0.000000           1.429535           0.825343           0.000000
hessian_block_lv             2       2          12.146419           7.012738          -0.000000           7.012738          22.308161          -0.000000          -0.000000          -0.000000           4.631159
hessian_block_lv             2       3           0.000000           0.000000           0.000000          -0.000000          -0.000000           0.000000          -0.000000           1.650685          -0.000000
hessian_block_lv             3       3          12.146419           7.012738          -0.000000           7.012738          20.244031          -0.000000          -0.000000          -0.000000           5.672467
hessian_block_lv_atom        1       1          -0.000000          -0.000000           0.000000          -0.000000          -0.000000           0.000000          -1.130500          -0.652695          -0.000000
hessian_block_lv_atom        1       2           0.000000           0.000000          -0.000000           0.000000           0.000000          -0.000000           1.130500           0.652695           0.000000
hessian_block_lv_atom        1       3           0.000000           0.000000           0.000000          -0.000000          -0.000000           0.000000          -1.130500          -0.652695          -0.000000
hessian_block_lv_atom        1       4          -0.000000          -0.000000          -0.000000           0.000000           0.000000          -0.000000           1.130500           0.652695           0.000000
hessian_block_lv_atom        2       1          -0.000000          -0.000000           0.000000          -0.000000          -0.000000           0.000000          -0.000000          -1.305389           0.000000
hessian_block_lv_atom        2       2           0.000000           0.000000           0.000000           0.000000           0.000000          -0.000000           0.000000           1.305389          -0.000000
hessian_block_lv_atom        2       3           0.000000           0.000000          -0.000000          -0.000000          -0.000000          -0.000000          -0.000000          -1.305389           0.000000
hessian_block_lv_atom        2       4          -0.000000          -0.000000           0.000000           0.000000           0.000000           0.000000           0.000000           1.305389          -0.000000
hessian_block_lv_atom        3       1          -0.000000           0.000000           0.000000           0.000000           0.000000           0.000000          -0.000000           0.000000           3.344970
hessian_block_lv_atom        3       2           0.000000          -0.000000          -0.000000           0.000000          -0.000000          -0.000000           0.000000          -0.000000          -3.344970
hessian_block_lv_atom        3       3           0.000000          -0.000000          -0.000000          -0.000000           0.000000           0.000000          -0.000000           0.000000           3.344970
hessian_block_lv_atom        3       4          -0.000000           0.000000          -0.000000           0.000000          -0.000000          -0.000000           0.000000          -0.000000          -3.344970
