#=======================================================
# FHI-aims file: Al.in
# Created using the Atomic Simulation Environment (ASE)
# Fri Oct 19 16:58:21 2018
#=======================================================
lattice_vector 0.0000000000000000 2.0236329999999998 2.0236329999999998 
lattice_vector 2.0236329999999998 0.0000000000000000 2.0236329999999998 
lattice_vector 2.0236329999999998 2.0236329999999998 0.0000000000000000 
atom 0.0000000000000000 0.0000000000000000 0.0000000000000000 Al
