#=======================================================
# FHI-aims file: geometry.in.supercell
# Created using the Atomic Simulation Environment (ASE)
# Fri Feb 15 11:52:00 2019

# Additional information:
#  Number of atoms:     64
#  supercell_matrix:    [[-2, 2, 2], [2, -2, 2], [2, 2, -2]]
#=======================================================
lattice_vector 8.4523988400000007 -0.0000000000000002 -0.0000000000000002 
lattice_vector -0.0000000000000002 8.4523988400000007 0.0000000000000002 
lattice_vector 0.0000000000000002 0.0000000000000002 8.4523988400000007 
atom 0.0000000000000000 0.0000000000000000 0.0000000000000000 Mg
atom 0.0000000000000000 2.1130997100000002 2.1130997100000002 Mg
atom 0.0000000000000000 4.2261994200000004 4.2261994200000004 Mg
atom 0.0000000000000000 6.3392991300000006 6.3392991300000006 Mg
atom 2.1130997100000002 0.0000000000000000 2.1130997100000002 Mg
atom 2.1130997100000002 2.1130997100000002 4.2261994200000004 Mg
atom 2.1130997100000002 4.2261994200000004 6.3392991300000006 Mg
atom 2.1130997100000002 6.3392991300000006 0.0000000000000001 Mg
atom 4.2261994200000004 0.0000000000000000 4.2261994200000004 Mg
atom 4.2261994200000004 2.1130997100000002 6.3392991300000006 Mg
atom 4.2261994200000004 4.2261994200000004 0.0000000000000000 Mg
atom 4.2261994200000004 6.3392991300000006 2.1130997100000002 Mg
atom 6.3392991300000006 0.0000000000000000 6.3392991300000006 Mg
atom 6.3392991300000006 2.1130997100000002 -0.0000000000000001 Mg
atom 6.3392991300000006 4.2261994200000004 2.1130997100000002 Mg
atom 6.3392991300000006 6.3392991300000006 4.2261994200000004 Mg
atom 2.1130997100000002 2.1130997100000002 0.0000000000000000 Mg
atom 2.1130997100000002 4.2261994200000004 2.1130997100000002 Mg
atom 2.1130997100000002 6.3392991300000006 4.2261994200000004 Mg
atom 2.1130997100000002 0.0000000000000001 6.3392991300000006 Mg
atom 4.2261994200000004 2.1130997100000002 2.1130997100000002 Mg
atom 4.2261994200000004 4.2261994200000004 4.2261994200000004 Mg
atom 4.2261994200000004 6.3392991300000006 6.3392991300000006 Mg
atom 4.2261994200000004 -0.0000000000000001 -0.0000000000000001 Mg
atom 6.3392991300000006 2.1130997100000002 4.2261994200000004 Mg
atom 6.3392991300000006 4.2261994200000004 6.3392991300000006 Mg
atom 6.3392991300000006 6.3392991300000006 0.0000000000000000 Mg
atom 6.3392991300000006 -0.0000000000000001 2.1130997100000002 Mg
atom 0.0000000000000001 2.1130997100000002 6.3392991300000006 Mg
atom -0.0000000000000001 4.2261994200000004 0.0000000000000001 Mg
atom -0.0000000000000001 6.3392991300000006 2.1130997100000002 Mg
atom 0.0000000000000001 0.0000000000000001 4.2261994200000004 Mg
atom 2.1130997100000002 2.1130997100000002 2.1130997100000002 O
atom 2.1130997100000002 4.2261994200000004 4.2261994200000004 O
atom 2.1130997100000002 6.3392991300000006 6.3392991300000006 O
atom 2.1130997100000002 8.4523988399999990 8.4523988400000007 O
atom 4.2261994200000004 2.1130997100000002 4.2261994200000004 O
atom 4.2261994200000004 4.2261994200000004 6.3392991300000006 O
atom 4.2261994200000004 6.3392991300000006 0.0000000000000001 O
atom 4.2261994200000004 8.4523988399999990 2.1130997100000002 O
atom 6.3392991300000006 2.1130997100000002 6.3392991300000006 O
atom 6.3392991300000006 4.2261994200000004 -0.0000000000000001 O
atom 6.3392991300000006 6.3392991300000006 2.1130997100000002 O
atom 6.3392991300000006 8.4523988399999990 4.2261994199999986 O
atom 8.4523988399999990 2.1130997100000002 8.4523988399999990 O
atom 8.4523988399999990 4.2261994200000004 2.1130997100000002 O
atom 8.4523988399999990 6.3392991300000006 4.2261994200000004 O
atom 8.4523988399999990 8.4523988399999990 6.3392991299999988 O
atom 4.2261994200000004 4.2261994200000004 2.1130997100000002 O
atom 4.2261994200000004 6.3392991300000006 4.2261994200000004 O
atom 4.2261994200000004 0.0000000000000001 6.3392991300000006 O
atom 4.2261994200000004 2.1130997100000006 8.4523988399999990 O
atom 6.3392991300000006 4.2261994200000004 4.2261994200000004 O
atom 6.3392991300000006 6.3392991300000006 6.3392991300000006 O
atom 6.3392991300000006 -0.0000000000000002 -0.0000000000000002 O
atom 6.3392991300000006 2.1130997100000002 2.1130997100000002 O
atom 0.0000000000000001 4.2261994200000004 6.3392991300000006 O
atom -0.0000000000000002 6.3392991300000006 0.0000000000000002 O
atom 0.0000000000000001 0.0000000000000001 2.1130997100000002 O
atom 0.0000000000000001 2.1130997100000002 4.2261994199999986 O
atom 2.1130997100000006 4.2261994200000004 8.4523988400000007 O
atom 2.1130997100000002 6.3392991300000006 2.1130997100000002 O
atom 2.1130997100000002 0.0000000000000001 4.2261994200000004 O
atom 2.1130997100000002 2.1130997100000002 6.3392991299999988 O
