# xc pbesol
# relativistic      atomic_zora scalar
# 
# k_grid 8 8 8
# 
# use_symmetric_forces .true.
# relax_geometry  trm 1e-3
# relax_unit_cell full
# 
# light
lattice_vector      0.00000000      2.11309971      2.11309971
lattice_vector      2.11309971      0.00000000      2.11309971
lattice_vector      2.11309971      2.11309971      0.00000000

atom_frac       0.00000000      0.00000000      0.00000000 Mg
atom_frac       0.50000000      0.50000000      0.50000000 O
