#=======================================================
# FHI-aims file: geometry.in.rotated.supercell_120
# Created using the Atomic Simulation Environment (ASE)
# Fri Feb 15 18:17:20 2019

# Additional information:
#  Number of atoms:     120
#  Spacegroup:          221
#=======================================================
lattice_vector 17.5398321017204140 0.0000000000000000 0.0000000000000000 
lattice_vector 0.0000000000000000 17.5398321017204140 0.0000000000000000 
lattice_vector 0.0000000000000000 0.0000000000000000 18.6038013299999996 
atom 0.0000000000000000 13.1548740762903087 3.1006335549999999 Cs
atom 0.0000000000000000 13.1548740762903087 9.3019006649999998 Cs
atom 0.0000000000000000 13.1548740762903087 15.5031677749999997 Cs
atom 2.1924790127150509 15.3473530890053631 0.0000000000000000 I
atom 2.1924790127150509 15.3473530890053631 6.2012671099999999 I
atom 2.1924790127150509 15.3473530890053631 12.4025342199999997 I
atom 0.0000000000000000 4.3849580254301026 3.1006335549999999 Cs
atom 0.0000000000000000 4.3849580254301026 9.3019006649999998 Cs
atom 0.0000000000000000 4.3849580254301026 15.5031677749999997 Cs
atom 4.3849580254301035 8.7699160508602070 3.1006335549999999 Cs
atom 0.0000000000000000 8.7699160508602070 0.0000000000000000 Pb
atom 2.1924790127150509 6.5774370381451552 0.0000000000000000 I
atom 2.1924790127150509 10.9623950635752578 0.0000000000000000 I
atom 0.0000000000000000 8.7699160508602070 3.1006335549999999 I
atom 4.3849580254301035 8.7699160508602070 9.3019006649999998 Cs
atom 0.0000000000000000 8.7699160508602070 6.2012671099999999 Pb
atom 2.1924790127150509 6.5774370381451552 6.2012671099999999 I
atom 2.1924790127150509 10.9623950635752578 6.2012671099999999 I
atom 0.0000000000000000 8.7699160508602070 9.3019006649999998 I
atom 4.3849580254301035 8.7699160508602070 15.5031677749999997 Cs
atom 0.0000000000000000 8.7699160508602070 12.4025342199999997 Pb
atom 2.1924790127150509 6.5774370381451552 12.4025342199999997 I
atom 2.1924790127150509 10.9623950635752578 12.4025342199999997 I
atom 0.0000000000000000 8.7699160508602070 15.5031677749999997 I
atom 8.7699160508602070 13.1548740762903087 3.1006335549999999 Cs
atom 4.3849580254301035 13.1548740762903105 0.0000000000000000 Pb
atom 6.5774370381451561 10.9623950635752578 0.0000000000000000 I
atom 6.5774370381451561 15.3473530890053631 0.0000000000000000 I
atom 4.3849580254301035 13.1548740762903105 3.1006335549999999 I
atom 8.7699160508602070 13.1548740762903087 9.3019006649999998 Cs
atom 4.3849580254301035 13.1548740762903105 6.2012671099999999 Pb
atom 6.5774370381451561 10.9623950635752578 6.2012671099999999 I
atom 6.5774370381451561 15.3473530890053631 6.2012671099999999 I
atom 4.3849580254301035 13.1548740762903105 9.3019006649999998 I
atom 8.7699160508602070 13.1548740762903087 15.5031677749999997 Cs
atom 4.3849580254301035 13.1548740762903105 12.4025342199999997 Pb
atom 6.5774370381451561 10.9623950635752578 12.4025342199999997 I
atom 6.5774370381451561 15.3473530890053631 12.4025342199999997 I
atom 4.3849580254301035 13.1548740762903105 15.5031677749999997 I
atom 10.9623950635752578 15.3473530890053631 0.0000000000000000 I
atom 10.9623950635752578 15.3473530890053631 6.2012671099999999 I
atom 10.9623950635752578 15.3473530890053631 12.4025342199999997 I
atom 4.3849580254301035 0.0000000000000000 3.1006335549999999 Cs
atom 0.0000000000000000 0.0000000000000000 0.0000000000000000 Pb
atom 2.1924790127150509 2.1924790127150517 0.0000000000000000 I
atom 0.0000000000000000 0.0000000000000000 3.1006335549999999 I
atom 4.3849580254301035 0.0000000000000000 9.3019006649999998 Cs
atom 0.0000000000000000 0.0000000000000000 6.2012671099999999 Pb
atom 2.1924790127150509 2.1924790127150517 6.2012671099999999 I
atom 0.0000000000000000 0.0000000000000000 9.3019006649999998 I
atom 4.3849580254301035 0.0000000000000000 15.5031677749999997 Cs
atom 0.0000000000000000 0.0000000000000000 12.4025342199999997 Pb
atom 2.1924790127150509 2.1924790127150517 12.4025342199999997 I
atom 0.0000000000000000 0.0000000000000000 15.5031677749999997 I
atom 8.7699160508602070 4.3849580254301026 3.1006335549999999 Cs
atom 4.3849580254301035 4.3849580254301035 0.0000000000000000 Pb
atom 6.5774370381451561 2.1924790127150517 0.0000000000000000 I
atom 6.5774370381451561 6.5774370381451552 0.0000000000000000 I
atom 4.3849580254301035 4.3849580254301035 3.1006335549999999 I
atom 8.7699160508602070 4.3849580254301026 9.3019006649999998 Cs
atom 4.3849580254301035 4.3849580254301035 6.2012671099999999 Pb
atom 6.5774370381451561 2.1924790127150517 6.2012671099999999 I
atom 6.5774370381451561 6.5774370381451552 6.2012671099999999 I
atom 4.3849580254301035 4.3849580254301035 9.3019006649999998 I
atom 8.7699160508602070 4.3849580254301026 15.5031677749999997 Cs
atom 4.3849580254301035 4.3849580254301035 12.4025342199999997 Pb
atom 6.5774370381451561 2.1924790127150517 12.4025342199999997 I
atom 6.5774370381451561 6.5774370381451552 12.4025342199999997 I
atom 4.3849580254301035 4.3849580254301035 15.5031677749999997 I
atom 13.1548740762903087 8.7699160508602070 3.1006335549999999 Cs
atom 8.7699160508602070 8.7699160508602070 0.0000000000000000 Pb
atom 10.9623950635752578 6.5774370381451552 0.0000000000000000 I
atom 10.9623950635752578 10.9623950635752578 0.0000000000000000 I
atom 8.7699160508602070 8.7699160508602070 3.1006335549999999 I
atom 13.1548740762903087 8.7699160508602070 9.3019006649999998 Cs
atom 8.7699160508602070 8.7699160508602070 6.2012671099999999 Pb
atom 10.9623950635752578 6.5774370381451552 6.2012671099999999 I
atom 10.9623950635752578 10.9623950635752578 6.2012671099999999 I
atom 8.7699160508602070 8.7699160508602070 9.3019006649999998 I
atom 13.1548740762903087 8.7699160508602070 15.5031677749999997 Cs
atom 8.7699160508602070 8.7699160508602070 12.4025342199999997 Pb
atom 10.9623950635752578 6.5774370381451552 12.4025342199999997 I
atom 10.9623950635752578 10.9623950635752578 12.4025342199999997 I
atom 8.7699160508602070 8.7699160508602070 15.5031677749999997 I
atom 13.1548740762903087 13.1548740762903105 0.0000000000000000 Pb
atom 15.3473530890053595 10.9623950635752578 0.0000000000000000 I
atom 15.3473530890053595 15.3473530890053631 0.0000000000000000 I
atom 13.1548740762903087 13.1548740762903105 3.1006335549999999 I
atom 13.1548740762903087 13.1548740762903105 6.2012671099999999 Pb
atom 15.3473530890053595 10.9623950635752578 6.2012671099999999 I
atom 15.3473530890053595 15.3473530890053631 6.2012671099999999 I
atom 13.1548740762903087 13.1548740762903105 9.3019006649999998 I
atom 13.1548740762903087 13.1548740762903105 12.4025342199999997 Pb
atom 15.3473530890053595 10.9623950635752578 12.4025342199999997 I
atom 15.3473530890053595 15.3473530890053631 12.4025342199999997 I
atom 13.1548740762903087 13.1548740762903105 15.5031677749999997 I
atom 13.1548740762903087 0.0000000000000000 3.1006335549999999 Cs
atom 8.7699160508602070 0.0000000000000000 0.0000000000000000 Pb
atom 10.9623950635752578 2.1924790127150517 0.0000000000000000 I
atom 8.7699160508602070 0.0000000000000000 3.1006335549999999 I
atom 13.1548740762903087 0.0000000000000000 9.3019006649999998 Cs
atom 8.7699160508602070 0.0000000000000000 6.2012671099999999 Pb
atom 10.9623950635752578 2.1924790127150517 6.2012671099999999 I
atom 8.7699160508602070 0.0000000000000000 9.3019006649999998 I
atom 13.1548740762903087 0.0000000000000000 15.5031677749999997 Cs
atom 8.7699160508602070 0.0000000000000000 12.4025342199999997 Pb
atom 10.9623950635752578 2.1924790127150517 12.4025342199999997 I
atom 8.7699160508602070 0.0000000000000000 15.5031677749999997 I
atom 13.1548740762903087 4.3849580254301035 0.0000000000000000 Pb
atom 15.3473530890053595 2.1924790127150517 0.0000000000000000 I
atom 15.3473530890053595 6.5774370381451552 0.0000000000000000 I
atom 13.1548740762903087 4.3849580254301035 3.1006335549999999 I
atom 13.1548740762903087 4.3849580254301035 6.2012671099999999 Pb
atom 15.3473530890053595 2.1924790127150517 6.2012671099999999 I
atom 15.3473530890053595 6.5774370381451552 6.2012671099999999 I
atom 13.1548740762903087 4.3849580254301035 9.3019006649999998 I
atom 13.1548740762903087 4.3849580254301035 12.4025342199999997 Pb
atom 15.3473530890053595 2.1924790127150517 12.4025342199999997 I
atom 15.3473530890053595 6.5774370381451552 12.4025342199999997 I
atom 13.1548740762903087 4.3849580254301035 15.5031677749999997 I
