# xc                      pbesol
# relativistic            atomic_zora     scalar
# k_grid                  6 6 6
# 
# use_symmetric_forces .true.
# relax_geometry bfgs 1e-3
# relax_unit_cell full

# light


lattice_vector 4.3849580254301035 -4.3849580254301035 0.
lattice_vector 4.3849580254301035  4.3849580254301035 0.
lattice_vector 0.0                 0.0                6.20126711
atom_frac       0.50000000      0.50000000      0.50000000 Cs
atom_frac       0.00000000      0.00000000      0.00000000 Pb
atom_frac       0.50000000      0.00000000      0.00000000 I
atom_frac       0.00000000      0.50000000      0.00000000 I
atom_frac      -0.00000000     -0.00000000      0.50000000 I
