#=====================================================
# libflo:  geometry.in 
#   Date:    2018-11-02 10:12:40
#=====================================================
#   Material:          Al32
#   No. atoms:         32
#   Spacegroup:        225
#   Wyckoff positions: 32*a
#   Unit cell volume:  531.441000 AA^3
#   Tag  1:            supercell
#   Tag  2:            ('smatrix', [-2, 2, 2, 2, -2, 2, 2, 2, -2])
  lattice_vector  8.10000000000000e+00  0.00000000000000e+00  0.00000000000000e+00
  lattice_vector  0.00000000000000e+00  8.10000000000000e+00  0.00000000000000e+00
  lattice_vector  0.00000000000000e+00  0.00000000000000e+00  8.10000000000000e+00
  atom        0.00000000000000e+00  0.00000000000000e+00  0.00000000000000e+00  Al 
  atom        8.10000000000000e+00  2.02500000000000e+00  2.02500000000000e+00  Al 
  atom        8.10000000000000e+00  4.05000000000000e+00  4.05000000000000e+00  Al 
  atom        8.10000000000000e+00  6.07500000000000e+00  6.07500000000000e+00  Al 
  atom        2.02500000000000e+00  0.00000000000000e+00  2.02500000000000e+00  Al 
  atom        2.02500000000000e+00  2.02500000000000e+00  4.05000000000000e+00  Al 
  atom        2.02500000000000e+00  4.05000000000000e+00  6.07500000000000e+00  Al 
  atom        2.02500000000000e+00  6.07500000000000e+00  0.00000000000000e+00  Al 
  atom        4.05000000000000e+00  0.00000000000000e+00  4.05000000000000e+00  Al 
  atom        4.05000000000000e+00  2.02500000000000e+00  6.07500000000000e+00  Al 
  atom        4.05000000000000e+00  4.05000000000000e+00  0.00000000000000e+00  Al 
  atom        4.05000000000000e+00  6.07500000000000e+00  2.02500000000000e+00  Al 
  atom        6.07500000000000e+00  0.00000000000000e+00  6.07500000000000e+00  Al 
  atom        6.07500000000000e+00  2.02500000000000e+00  0.00000000000000e+00  Al 
  atom        6.07500000000000e+00  4.05000000000000e+00  2.02500000000000e+00  Al 
  atom        6.07500000000000e+00  6.07500000000000e+00  4.05000000000000e+00  Al 
  atom        2.02500000000000e+00  2.02500000000000e+00  0.00000000000000e+00  Al 
  atom        2.02500000000000e+00  4.05000000000000e+00  2.02500000000000e+00  Al 
  atom        2.02500000000000e+00  6.07500000000000e+00  4.05000000000000e+00  Al 
  atom        2.02500000000000e+00  0.00000000000000e+00  6.07500000000000e+00  Al 
  atom        4.05000000000000e+00  2.02500000000000e+00  2.02500000000000e+00  Al 
  atom        4.05000000000000e+00  4.05000000000000e+00  4.05000000000000e+00  Al 
  atom        4.05000000000000e+00  6.07500000000000e+00  6.07500000000000e+00  Al 
  atom        4.05000000000000e+00  0.00000000000000e+00  0.00000000000000e+00  Al 
  atom        6.07500000000000e+00  2.02500000000000e+00  4.05000000000000e+00  Al 
  atom        6.07500000000000e+00  4.05000000000000e+00  6.07500000000000e+00  Al 
  atom        6.07500000000000e+00  6.07500000000000e+00  0.00000000000000e+00  Al 
  atom        6.07500000000000e+00  0.00000000000000e+00  2.02500000000000e+00  Al 
  atom        0.00000000000000e+00  2.02500000000000e+00  6.07500000000000e+00  Al 
  atom        0.00000000000000e+00  4.05000000000000e+00  0.00000000000000e+00  Al 
  atom        0.00000000000000e+00  6.07500000000000e+00  2.02500000000000e+00  Al 
  atom        0.00000000000000e+00  0.00000000000000e+00  4.05000000000000e+00  Al 
