#=====================================================
# libflo:  geometry.in 
#   Date:    2018-11-02 09:51:46
#=====================================================
#   Material:          Al4
#   No. atoms:         4
#   Spacegroup:        225
#   Wyckoff positions: 4*b
#   Unit cell volume:  66.430125 AA^3
#   Tag  1:            supercell
#   Tag  2:            ('smatrix', [-1, 1, 1, 1, -1, 1, 1, 1, -1])
  lattice_vector  4.05000000000000e+00  0.00000000000000e+00  0.00000000000000e+00
  lattice_vector  0.00000000000000e+00  4.05000000000000e+00  0.00000000000000e+00
  lattice_vector  0.00000000000000e+00  0.00000000000000e+00  4.05000000000000e+00
  atom        0.00000000000000e+00  0.00000000000000e+00  0.00000000000000e+00  Al 
  atom        4.05000000000000e+00  2.02500000000000e+00  2.02500000000000e+00  Al 
  atom        2.02500000000000e+00  0.00000000000000e+00  2.02500000000000e+00  Al 
  atom        2.02500000000000e+00  2.02500000000000e+00  0.00000000000000e+00  Al 
