#=======================================================
# FHI-aims file: geometry.in.relaxed
# Created using the Atomic Simulation Environment (ASE)
# Tue Nov 20 18:37:52 2018
#=======================================================
lattice_vector -0.0000000000134793 2.7314661494932202 2.7314661494946400 
lattice_vector 2.7314660083551789 -0.0000000000520985 2.7314661495332588 
lattice_vector 2.7314660083829900 2.7314661495596502 -0.0000000000799095 
atom_frac 0.0000000000075698 0.9999999999994391 0.9999999999737673 Si
atom_frac 0.2499999999924304 0.2500000000005608 0.2500000000262327 Si
