#=======================================================
# FHI-aims file: geometry.in.relaxed
# Created using the Atomic Simulation Environment (ASE)
# Sat Nov 24 14:52:18 2018
#=======================================================
lattice_vector -0.0000000001274484 2.7138894327713454 2.7138894326773424 
lattice_vector 2.7138884925371838 0.0000000000216413 2.7138894325282528 
lattice_vector 2.7138884926514319 2.7138894327365040 -0.0000000000926072 
atom_frac 0.0000000000146418 0.9999999999715284 0.9999999999943090 Si
atom_frac 0.2499999999853582 0.2500000000284715 0.2500000000056909 Si
