#=======================================================
# FHI-aims file: geometry.in.relaxed
# Created using the Atomic Simulation Environment (ASE)
# Tue Nov 27 12:51:14 2018

# Additional information:
# Relaxed with BFGS, fmax=0.01 eV/AA
#=======================================================
lattice_vector 0.0000000000000000 2.7145809819370741 2.7145809819676496 
lattice_vector 2.7145807239105335 0.0000000000000000 2.7145809820335853 
lattice_vector 2.7145807239810318 2.7145809820735085 0.0000000000000000 
atom_frac 0.0000000000000000 0.0000000000000000 0.0000000000000000 Si
atom_frac 0.2499999999886743 0.2499999999962777 0.2500000001127159 Si
